LAMMPS (27 Jun 2024)
OMP_NUM_THREADS environment is not set. Defaulting to 1 thread. (src/comm.cpp:98)
  using 1 OpenMP thread(s) per MPI task
### Some general info
units           si
dimension       2
boundary        s s p

#---------------------------------------------------------------------
# Specify atoms and bond attributes (tells lammps what to store)
#---------------------------------------------------------------------
atom_style      bpm/sphere
special_bonds 	lj 1 1 1 coul 1 1 1
newton          on off

#---------------------------------------------------------------------
# Read in data from .dat file
#---------------------------------------------------------------------
read_data       CatchAtoms_small.dat extra/bond/per/atom 6 extra/special/per/atom 100  #$# USER INPUT (name of .dat folder)
Reading data file ...
  orthogonal box = (-0.03 -0.025 -0.0025) to (0.03 0.025 0.0025)
  4 by 2 by 1 MPI processor grid
  reading atoms ...
  769 atoms
Finding 1-2 1-3 1-4 neighbors ...
  special bond factors lj:    1        1        1       
  special bond factors coul:  1        1        1       
     0 = max # of 1-2 neighbors
   101 = max # of special neighbors
  special bonds CPU = 0.000 seconds
  read_data CPU = 0.007 seconds

#---------------------------------------------------------------------
# Simulation parameters
#---------------------------------------------------------------------
variable        chi equal 0.005         # Damping multiplier
variable        alpha equal 0.1         # Timestep multiplier

variable        xi equal 0.0014         # Mesh size (m)   #$# USER INPUT Must match output from the builder

#---------------------------------------------------------------------
# Communication lengthscales
#---------------------------------------------------------------------
variable        ell equal $(v_xi*1.5)   #
variable        ell equal 0.0020999999999999998702   
variable        Lmax equal $(v_xi*2.0)	# Maximum dynamic bond formation length
variable        Lmax equal 0.0027999999999999999716	

#---------------------------------------------------------------------
# Parameter sweep
#---------------------------------------------------------------------

# Efficiency of the catch bond
variable        catch_eff equal 1.0       #$# USER INPUT

# Weissenberg number
variable        Wi equal 10              #$# USER INPUT

#---------------------------------------------------------------------
# Bond Parameters
#---------------------------------------------------------------------

# Energy scale governing bond stiffness
variable        Energy equal 1.0533e-06

# Length at which bond force diverges
variable        Lcrit equal $(1.90*v_Lmax)
variable        Lcrit equal 0.0053200000000000000761

# Length at which bond force reaches 200 dynes (and breaks)
variable        Lfc equal 0.004125404

variable        fc equal 0.002                      # Critical force at which bonds break
variable        Kmax equal 3.487                    # Stiffness at bond failure   #$# USER INPUT Must match output from the builder

#---------------------------------------------------------------------
# Pairwise Potential Parameters
#---------------------------------------------------------------------

variable        rscreen equal $(0.1818*v_ell)       # Screening length (governs pairwise decay lengthscale)
variable        rscreen equal 0.00038177999999999996661       
variable        Apair equal $(v_Energy/15)          # Energy scale for pairwise forces
variable        Apair equal 7.0219999999999989538e-08          
variable	    cutoff_rep equal ${ell}	            # Length at which repulsion force is zero & no longer checked
variable	    cutoff_rep equal 0.0021	            

#---------------------------------------------------------------------
# Bond kinetic parameters
#---------------------------------------------------------------------

# Experimentally measured kinetic rates in units of [1/s]
variable        ka0 equal 0.0848
variable        kd0 equal 0.0074

variable        tauh equal $(1/(v_ka0+v_kd0))
variable        tauh equal 10.845986984815617404

# Transition state distance (for both slip and catch pathways)
variable        f0 equal 0.0004                     #$# USER INPUT

variable        B equal $((2.0*v_catch_eff^2)+2*sqrt(v_catch_eff^4-v_catch_eff^2)-1)
variable        B equal 1
variable        kd_bar equal $(v_kd0/(v_B+1))
variable        kd_bar equal 0.0037000000000000001638

#---------------------------------------------------------------------
# Define bond properties (nonlinear springs)
#---------------------------------------------------------------------
variable	    R equal 0
bond_style      nonlinear
bond_coeff      1 ${Energy} ${R} ${Lcrit}
bond_coeff      1 1.0533e-06 ${R} ${Lcrit}
bond_coeff      1 1.0533e-06 0 ${Lcrit}
bond_coeff      1 1.0533e-06 0 0.00532

#---------------------------------------------------------------------
# Define pairwise repulsion
#---------------------------------------------------------------------
variable	    kappa equal $(1.0/v_rscreen)
variable	    kappa equal 2619.3095500026192894
pair_style      hybrid/overlay yukawa ${kappa} ${cutoff_rep} zero $(v_Lcrit*2.5)
pair_style      hybrid/overlay yukawa 2619.30955000262 ${cutoff_rep} zero $(v_Lcrit*2.5)
pair_style      hybrid/overlay yukawa 2619.30955000262 0.0021 zero $(v_Lcrit*2.5)
pair_style      hybrid/overlay yukawa 2619.30955000262 0.0021 zero 0.013299999999999999323
pair_coeff      * * yukawa $(v_Apair) ${cutoff_rep}
pair_coeff      * * yukawa 7.0220000000000002773e-08 ${cutoff_rep}
pair_coeff      * * yukawa 7.0220000000000002773e-08 0.0021
pair_coeff      * * zero $(v_Lcrit*2.5)  # Added pairwise cutoff distance for communication
pair_coeff      * * zero 0.013299999999999999323  

####################################
#### Derived Simulation Parameters
####################################
# Calculate minimum mass
compute         getmass all property/atom mass
compute         minmass all reduce min c_getmass

run             0

CITE-CITE-CITE-CITE-CITE-CITE-CITE-CITE-CITE-CITE-CITE-CITE-CITE

Your simulation uses code contributions which should be cited:

- Type Label Framework: https://doi.org/10.1021/acs.jpcb.3c08419

@Article{Gissinger24,
 author = {Jacob R. Gissinger, Ilia Nikiforov, Yaser Afshar, Brendon Waters, Moon-ki Choi, Daniel S. Karls, Alexander Stukowski, Wonpil Im, Hendrik Heinz, Axel Kohlmeyer, and Ellad B. Tadmor},
 title = {Type Label Framework for Bonded Force Fields in LAMMPS},
 journal = {J. Phys. Chem. B},
 year =    2024,
 volume =  128,
 number =  13,
 pages =   {3282â€“-3297}
}

CITE-CITE-CITE-CITE-CITE-CITE-CITE-CITE-CITE-CITE-CITE-CITE-CITE

WARNING: No fixes with time integration, atoms won't move (src/verlet.cpp:60)
Generated 0 of 0 mixed pair_coeff terms from geometric mixing rule
Neighbor list info ...
  update: every = 1 steps, delay = 0 steps, check = yes
  max neighbors/atom: 2000, page size: 100000
  master list distance cutoff = 0.0143
  ghost atom cutoff = 0.0143
  binsize = 0.00715, bins = 7 7 1
  2 neighbor lists, perpetual/occasional/extra = 2 0 0
  (1) pair yukawa, perpetual, trim from (2)
      attributes: half, newton on, cut 0.0031
      pair build: trim
      stencil: none
      bin: none
  (2) pair zero, perpetual
      attributes: half, newton on
      pair build: half/bin/newton
      stencil: half/bin/2d
      bin: standard
Per MPI rank memory allocation (min/avg/max) = 13.45 | 13.46 | 13.47 Mbytes
   Step          Temp          E_pair         E_mol          TotEng         Press          Volume    
         0   0              0.00070103961  0              0.00070103961  0.73094221     0.0024958017 
Loop time of 4.4125e-06 on 8 procs for 0 steps with 769 atoms

85.0% CPU use with 8 MPI tasks x 1 OpenMP threads

MPI task timing breakdown:
Section |  min time  |  avg time  |  max time  |%varavg| %total
---------------------------------------------------------------
Pair    | 0          | 0          | 0          |   0.0 |  0.00
Bond    | 0          | 0          | 0          |   0.0 |  0.00
Neigh   | 0          | 0          | 0          |   0.0 |  0.00
Comm    | 0          | 0          | 0          |   0.0 |  0.00
Output  | 0          | 0          | 0          |   0.0 |  0.00
Modify  | 0          | 0          | 0          |   0.0 |  0.00
Other   |            | 4.413e-06  |            |       |100.00

Nlocal:         96.125 ave         101 max          87 min
Histogram: 1 0 1 0 0 0 1 3 0 2
Nghost:        297.875 ave         381 max         221 min
Histogram: 4 0 0 0 0 0 0 0 0 4
Neighs:        365.875 ave         415 max         310 min
Histogram: 1 0 0 1 1 2 2 0 0 1

Total # of neighbors = 2927
Ave neighs/atom = 3.8062419
Ave special neighs/atom = 0
Neighbor list builds = 0
Dangerous builds = 0
reset_timestep  0 time 0

# Calculate timestep
variable        dt equal $(v_alpha*sqrt(c_minmass/v_Kmax))
variable        dt equal 0.00067563187300704512315

#---------------------------------------------------------------------
# Loading parameters
#---------------------------------------------------------------------
variable        erate equal $(v_Wi*v_kd0)           #Engineering strain rate
variable        erate equal 0.074000000000000010214           
variable        lammax equal 4                    #desired stretch #$# USER INPUT

variable        H0 equal $(yhi-ylo)                 #inital height
variable        H0 equal 0.049952800000000005531                 
variable        H equal yhi-ylo
variable        Hf equal $(v_H0*v_lammax)           #final height
variable        Hf equal 0.19981119999999999437           

variable        Nrun equal $(ceil((v_lammax-1)/v_erate/v_dt))
variable        Nrun equal 60004
variable        nout equal $(ceil(v_Nrun/200))
variable        nout equal 301
variable        nthermo equal $(ceil(v_nout/10))
variable        nthermo equal 31

#############################################
##### Initialize particles and bond topology
#############################################

# for inter-processor communication
neighbor        $(2.5*v_ell) bin
neighbor        0.0052499999999999994588 bin
neigh_modify    page 1000000 one 100000 #exclude molecule/intra all

#---------------------------------------------------------------------
# Setup computes
#---------------------------------------------------------------------

# Compute bond informations
compute         1 all property/local btype batom1 batom2
compute         2 all bond/local dist force engpot
compute         4 all reduce max c_2[1] inputs local
compute         5 all reduce sum c_1[1] inputs local
variable        Bmax equal c_4
variable        vbonds equal c_5

#---------------------------------------------------------------------
# Setup thermos
#---------------------------------------------------------------------

# Outputs in command window
thermo_style    custom step atoms v_vbonds ebond epair
thermo          $(v_nthermo)
thermo          31
thermo_modify	flush yes lost warn lost/bond warn

#---------------------------------------------------------------------
# Initialize topology
#---------------------------------------------------------------------

# Initialize bond topology at experimentally-measured rates for proper initial conditions
timestep        $(v_dt)
timestep        0.00067563187300704501473
fix             dynamics all bond/dynamic 1 1 1 $(100*v_ka0) ${kd0} ${Lmax} maxbond 6
fix             dynamics all bond/dynamic 1 1 1 8.4800000000000004263 ${kd0} ${Lmax} maxbond 6
fix             dynamics all bond/dynamic 1 1 1 8.4800000000000004263 0.0074 ${Lmax} maxbond 6
fix             dynamics all bond/dynamic 1 1 1 8.4800000000000004263 0.0074 0.0028 maxbond 6
run             5000
WARNING: No fixes with time integration, atoms won't move (src/verlet.cpp:60)
Generated 0 of 0 mixed pair_coeff terms from geometric mixing rule
Neighbor list info ...
  update: every = 1 steps, delay = 0 steps, check = yes
  max neighbors/atom: 100000, page size: 1000000
  master list distance cutoff = 0.01855
  ghost atom cutoff = 0.01855
  binsize = 0.009275, bins = 6 6 1
  3 neighbor lists, perpetual/occasional/extra = 2 1 0
  (1) pair yukawa, perpetual, trim from (2)
      attributes: half, newton on, cut 0.007349999999999999
      pair build: trim
      stencil: none
      bin: none
  (2) pair zero, perpetual
      attributes: half, newton on
      pair build: half/bin/newton
      stencil: half/bin/2d
      bin: standard
  (3) fix bond/dynamic, occasional, copy from (2)
      attributes: half, newton on
      pair build: copy
      stencil: none
      bin: none
Per MPI rank memory allocation (min/avg/max) = 22.01 | 22.09 | 22.17 Mbytes
   Step        Atoms       v_vbonds        E_bond         E_pair    
         0         769   0              0              0.00070103961
        31         769   370            7.3489245e-05  0.00070103961
        62         769   692            0.00014101057  0.00070103961
        93         769   981            0.00019899665  0.00070103961
       124         769   1184           0.00023879669  0.00070103961
       155         769   1360           0.00027299408  0.00070103961
       186         769   1507           0.0003027602   0.00070103961
       217         769   1620           0.00032383466  0.00070103961
       248         769   1714           0.00034249047  0.00070103961
       279         769   1782           0.00035639315  0.00070103961
       310         769   1835           0.0003681963   0.00070103961
       341         769   1880           0.00037586395  0.00070103961
       372         769   1917           0.00038265172  0.00070103961
       403         769   1938           0.00038626934  0.00070103961
       434         769   1963           0.00039101127  0.00070103961
       465         769   1984           0.00039465615  0.00070103961
       496         769   1999           0.00039800544  0.00070103961
       527         769   2011           0.00040008783  0.00070103961
       558         769   2017           0.00040124976  0.00070103961
       589         769   2024           0.00040242604  0.00070103961
       620         769   2030           0.00040354976  0.00070103961
       651         769   2036           0.00040531673  0.00070103961
       682         769   2043           0.00040664046  0.00070103961
       713         769   2045           0.0004070325   0.00070103961
       744         769   2050           0.00040833555  0.00070103961
       775         769   2054           0.00040910056  0.00070103961
       806         769   2055           0.00040908938  0.00070103961
       837         769   2055           0.0004091007   0.00070103961
       868         769   2057           0.00040929045  0.00070103961
       899         769   2060           0.00040991794  0.00070103961
       930         769   2060           0.00040991794  0.00070103961
       961         769   2061           0.00041013514  0.00070103961
       992         769   2061           0.00041013514  0.00070103961
      1023         769   2060           0.00040993631  0.00070103961
      1054         769   2061           0.00041005086  0.00070103961
      1085         769   2061           0.00041005086  0.00070103961
      1116         769   2061           0.00041005086  0.00070103961
      1147         769   2062           0.00041040512  0.00070103961
      1178         769   2061           0.00040996837  0.00070103961
      1209         769   2063           0.00041047349  0.00070103961
      1240         769   2063           0.00041047349  0.00070103961
      1271         769   2064           0.00041055341  0.00070103961
      1302         769   2066           0.00041105146  0.00070103961
      1333         769   2068           0.00041149738  0.00070103961
      1364         769   2068           0.00041149738  0.00070103961
      1395         769   2068           0.00041149738  0.00070103961
      1426         769   2067           0.00041141211  0.00070103961
      1457         769   2066           0.00041131565  0.00070103961
      1488         769   2066           0.00041101755  0.00070103961
      1519         769   2066           0.00041108273  0.00070103961
      1550         769   2066           0.00041108273  0.00070103961
      1581         769   2067           0.00041116124  0.00070103961
      1612         769   2066           0.00041096869  0.00070103961
      1643         769   2067           0.00041116124  0.00070103961
      1674         769   2066           0.00041093386  0.00070103961
      1705         769   2066           0.00041073964  0.00070103961
      1736         769   2066           0.00041073964  0.00070103961
      1767         769   2066           0.00041073964  0.00070103961
      1798         769   2066           0.00041073964  0.00070103961
      1829         769   2065           0.0004104116   0.00070103961
      1860         769   2064           0.00041028267  0.00070103961
      1891         769   2066           0.00041075969  0.00070103961
      1922         769   2065           0.00041064653  0.00070103961
      1953         769   2066           0.00041097457  0.00070103961
      1984         769   2066           0.00041097457  0.00070103961
      2015         769   2066           0.0004108093   0.00070103961
      2046         769   2067           0.00041108773  0.00070103961
      2077         769   2066           0.0004107336   0.00070103961
      2108         769   2067           0.00041108773  0.00070103961
      2139         769   2066           0.00041088817  0.00070103961
      2170         769   2066           0.00041088817  0.00070103961
      2201         769   2067           0.00041108773  0.00070103961
      2232         769   2067           0.00041108773  0.00070103961
      2263         769   2067           0.00041108773  0.00070103961
      2294         769   2066           0.00041098507  0.00070103961
      2325         769   2066           0.00041098507  0.00070103961
      2356         769   2067           0.00041107034  0.00070103961
      2387         769   2067           0.00041107034  0.00070103961
      2418         769   2066           0.00041096567  0.00070103961
      2449         769   2066           0.00041096567  0.00070103961
      2480         769   2066           0.00041081651  0.00070103961
      2511         769   2066           0.00041081651  0.00070103961
      2542         769   2067           0.00041107034  0.00070103961
      2573         769   2067           0.00041107034  0.00070103961
      2604         769   2066           0.00041073279  0.00070103961
      2635         769   2066           0.00041073279  0.00070103961
      2666         769   2066           0.00041073279  0.00070103961
      2697         769   2066           0.00041073279  0.00070103961
      2728         769   2066           0.00041073279  0.00070103961
      2759         769   2066           0.00041073279  0.00070103961
      2790         769   2066           0.00041073279  0.00070103961
      2821         769   2066           0.00041073279  0.00070103961
      2852         769   2067           0.00041110083  0.00070103961
      2883         769   2066           0.00041095408  0.00070103961
      2914         769   2067           0.00041138599  0.00070103961
      2945         769   2068           0.00041148865  0.00070103961
      2976         769   2068           0.00041148865  0.00070103961
      3007         769   2068           0.00041148865  0.00070103961
      3038         769   2068           0.00041148865  0.00070103961
      3069         769   2069           0.00041157524  0.00070103961
      3100         769   2068           0.00041144165  0.00070103961
      3131         769   2067           0.00041133623  0.00070103961
      3162         769   2068           0.00041153399  0.00070103961
      3193         769   2068           0.00041153399  0.00070103961
      3224         769   2069           0.00041167125  0.00070103961
      3255         769   2070           0.00041177668  0.00070103961
      3286         769   2070           0.00041177668  0.00070103961
      3317         769   2069           0.00041167815  0.00070103961
      3348         769   2068           0.00041154953  0.00070103961
      3379         769   2069           0.00041164869  0.00070103961
      3410         769   2070           0.00041174722  0.00070103961
      3441         769   2071           0.00041214178  0.00070103961
      3472         769   2071           0.00041214178  0.00070103961
      3503         769   2071           0.00041214178  0.00070103961
      3534         769   2071           0.00041214178  0.00070103961
      3565         769   2070           0.00041180853  0.00070103961
      3596         769   2071           0.00041214178  0.00070103961
      3627         769   2070           0.00041188333  0.00070103961
      3658         769   2070           0.00041212352  0.00070103961
      3689         769   2071           0.00041228356  0.00070103961
      3720         769   2071           0.00041228356  0.00070103961
      3751         769   2071           0.00041220827  0.00070103961
      3782         769   2070           0.00041212027  0.00070103961
      3813         769   2069           0.00041203444  0.00070103961
      3844         769   2069           0.00041203444  0.00070103961
      3875         769   2069           0.00041203444  0.00070103961
      3906         769   2069           0.00041188431  0.00070103961
      3937         769   2069           0.00041188431  0.00070103961
      3968         769   2070           0.00041204033  0.00070103961
      3999         769   2070           0.00041194226  0.00070103961
      4030         769   2070           0.00041194226  0.00070103961
      4061         769   2069           0.00041183911  0.00070103961
      4092         769   2069           0.00041202403  0.00070103961
      4123         769   2070           0.00041215761  0.00070103961
      4154         769   2071           0.0004122638   0.00070103961
      4185         769   2071           0.0004122638   0.00070103961
      4216         769   2071           0.0004122638   0.00070103961
      4247         769   2072           0.00041244769  0.00070103961
      4278         769   2072           0.00041244769  0.00070103961
      4309         769   2072           0.00041244769  0.00070103961
      4340         769   2072           0.00041244769  0.00070103961
      4371         769   2071           0.00041235007  0.00070103961
      4402         769   2071           0.00041235007  0.00070103961
      4433         769   2072           0.00041244769  0.00070103961
      4464         769   2072           0.00041244769  0.00070103961
      4495         769   2072           0.00041244769  0.00070103961
      4526         769   2072           0.00041244769  0.00070103961
      4557         769   2072           0.00041244769  0.00070103961
      4588         769   2072           0.00041244769  0.00070103961
      4619         769   2072           0.00041244769  0.00070103961
      4650         769   2072           0.00041244769  0.00070103961
      4681         769   2072           0.00041244769  0.00070103961
      4712         769   2072           0.00041244769  0.00070103961
      4743         769   2072           0.00041244769  0.00070103961
      4774         769   2072           0.00041244769  0.00070103961
      4805         769   2072           0.00041244769  0.00070103961
      4836         769   2071           0.00041226554  0.00070103961
      4867         769   2072           0.00041244769  0.00070103961
      4898         769   2072           0.00041244769  0.00070103961
      4929         769   2072           0.00041244769  0.00070103961
      4960         769   2071           0.00041236811  0.00070103961
      4991         769   2071           0.00041236811  0.00070103961
      5000         769   2071           0.00041236811  0.00070103961
Loop time of 3.55423 on 8 procs for 5000 steps with 769 atoms

94.7% CPU use with 8 MPI tasks x 1 OpenMP threads

MPI task timing breakdown:
Section |  min time  |  avg time  |  max time  |%varavg| %total
---------------------------------------------------------------
Pair    | 0.057337   | 0.061172   | 0.066952   |   1.2 |  1.72
Bond    | 0.018636   | 0.021066   | 0.029466   |   2.2 |  0.59
Neigh   | 1.4773     | 1.5008     | 1.5324     |   1.6 | 42.23
Comm    | 0.37045    | 0.40621    | 0.44239    |   3.7 | 11.43
Output  | 0.0070714  | 0.013014   | 0.052934   |  13.2 |  0.37
Modify  | 1.4624     | 1.506      | 1.5194     |   1.4 | 42.37
Other   |            | 0.04595    |            |       |  1.29

Nlocal:         96.125 ave         101 max          87 min
Histogram: 1 0 1 0 0 0 1 3 0 2
Nghost:         396.75 ave         488 max         311 min
Histogram: 4 0 0 0 0 0 0 0 0 4
Neighs:        2085.75 ave        2346 max        1787 min
Histogram: 1 0 0 2 1 1 1 0 0 2

Total # of neighbors = 16686
Ave neighs/atom = 21.698309
Ave special neighs/atom = 5.3862159
Neighbor list builds = 5000
Dangerous builds = 0
unfix           dynamics

# Outputs in command window
thermo_style    custom step atoms v_vbonds ebond epair lx ly fmax
WARNING: New thermo_style command, previous thermo_modify settings will be lost (src/output.cpp:904)
thermo          $(v_nthermo)
thermo          31
thermo_modify	flush yes lost warn lost/bond warn

#---------------------------------------------------------------------
# Setup BC
#---------------------------------------------------------------------

### Define groups ###
region		    top block INF INF $(yhi-v_H0/20.0) INF INF INF units box
region		    top block INF INF 0.022461460000000002535 INF INF INF units box
region		    bot block INF INF INF $(ylo+v_H0/20.0)  INF INF units box
region		    bot block INF INF INF -0.02249606000000000175  INF INF units box
group		    top_atoms region top
49 atoms in group top_atoms
group		    bot_atoms region bot
44 atoms in group bot_atoms
group       	top_atoms include molecule
49 atoms in group top_atoms
group       	bot_atoms include molecule
44 atoms in group bot_atoms
group       	bulk_atoms subtract all top_atoms bot_atoms
676 atoms in group bulk_atoms
group       	boundary_atoms subtract all bulk_atoms
93 atoms in group boundary_atoms

# Boundary conditions
timestep        $(v_dt)
timestep        0.00067563187300704501473
fix             top_zero top_atoms setforce 0.0 0.0 0.0
fix             bot_zero bot_atoms setforce 0.0 0.0 0.0
fix             integrate all nve
fix             damp all viscous $(c_minmass*v_chi/v_dt)
fix             damp all viscous 0.001177964170587783143

# Equilibrate
reset_timestep  0 time 0
dump            mydumpdebug all custom 5000 atoms_equilib.dump id type mol x y
dump_modify     mydumpdebug first yes
dump 		    bondsdumpdebug all local 5000 bonds_equilib.dump c_1[*] c_2[*]
dump_modify     bondsdumpdebug first yes
fix             2dfix all enforce2d
run             50000
Generated 0 of 0 mixed pair_coeff terms from geometric mixing rule
Neighbor list info ...
  update: every = 1 steps, delay = 0 steps, check = yes
  max neighbors/atom: 100000, page size: 1000000
  master list distance cutoff = 0.01855
  ghost atom cutoff = 0.01855
  binsize = 0.009275, bins = 6 6 1
  2 neighbor lists, perpetual/occasional/extra = 2 0 0
  (1) pair yukawa, perpetual, trim from (2)
      attributes: half, newton on, cut 0.007349999999999999
      pair build: trim
      stencil: none
      bin: none
  (2) pair zero, perpetual
      attributes: half, newton on
      pair build: half/bin/newton
      stencil: half/bin/2d
      bin: standard
Per MPI rank memory allocation (min/avg/max) = 21.47 | 21.55 | 21.64 Mbytes
   Step        Atoms       v_vbonds        E_bond         E_pair           Lx             Ly            Fmax     
         0         769   2071           0.00041236811  0.00070103961  0.0499632      0.0499528      0.0057710232 
        31         769   2071           0.00045423384  0.00050825375  0.0499632      0.0499528      0.0056874752 
        62         769   2071           0.00046343473  0.00046649432  0.053420591    0.0499528      0.0040758948 
        93         769   2071           0.0004718978   0.00042966256  0.053420591    0.0499528      0.0036813833 
       124         769   2071           0.00048489556  0.00039355435  0.056581348    0.0499528      0.0030051275 
       155         769   2071           0.00049166597  0.00036637862  0.056581348    0.0499528      0.0029495818 
       186         769   2071           0.00049899685  0.00033961551  0.058798505    0.0499528      0.0031672574 
       217         769   2071           0.00049970095  0.00033020581  0.058798505    0.0499528      0.0024407324 
       248         769   2071           0.00050531502  0.00032128287  0.058798505    0.0499528      0.0031830581 
       279         769   2071           0.0005105666   0.00030901961  0.058798505    0.0499528      0.0023657654 
       310         769   2071           0.00051172399  0.00030110489  0.060273607    0.0499528      0.00210826   
       341         769   2071           0.00051156548  0.00029681309  0.060273607    0.0499528      0.0017499578 
       372         769   2071           0.00051234389  0.00029806578  0.060273607    0.0499528      0.0018298108 
       403         769   2071           0.0005092233   0.00029579109  0.060273607    0.0499528      0.0017546757 
       434         769   2071           0.00050867347  0.00029155985  0.060273607    0.0499528      0.0013427315 
       465         769   2071           0.00050365785  0.00029716658  0.060273607    0.0499528      0.0012729967 
       496         769   2071           0.00049905516  0.00030687437  0.060273607    0.0499528      0.0013988005 
       527         769   2071           0.00049550592  0.00030697674  0.060273607    0.0499528      0.0012049456 
       558         769   2071           0.00049113735  0.00031519851  0.060273607    0.0499528      0.0012350636 
       589         769   2071           0.00048538843  0.00032109375  0.060273607    0.0499528      0.0012522712 
       620         769   2071           0.00048368018  0.0003246966   0.060273607    0.0499528      0.0011358999 
       651         769   2071           0.00048057385  0.00032870845  0.060273607    0.0499528      0.0010320722 
       682         769   2071           0.00047888759  0.00033023476  0.060273607    0.0499528      0.00097140433
       713         769   2071           0.00047679958  0.00033414848  0.060273607    0.0499528      0.0010943475 
       744         769   2071           0.00047526154  0.00033369495  0.060273607    0.0499528      0.0010379657 
       775         769   2071           0.00047402623  0.00033369028  0.060273607    0.0499528      0.00095762226
       806         769   2071           0.00047350444  0.00033755761  0.060273607    0.0499528      0.0011999598 
       837         769   2071           0.00047392585  0.00033753226  0.060273607    0.0499528      0.0010800258 
       868         769   2071           0.00047389098  0.0003371567   0.060273607    0.0499528      0.00083396555
       899         769   2071           0.00047446494  0.00033664524  0.060273607    0.0499528      0.00094045472
       930         769   2071           0.0004746668   0.00033325261  0.060273607    0.0499528      0.00099502916
       961         769   2071           0.0004750666   0.00033508261  0.060273607    0.0499528      0.00066808279
       992         769   2071           0.00047661091  0.00033173934  0.060273607    0.0499528      0.00099581436
      1023         769   2071           0.00047685241  0.0003313631   0.060273607    0.0499528      0.001202855  
      1054         769   2071           0.00047817762  0.00032906351  0.060273607    0.0499528      0.0008785704 
      1085         769   2071           0.00047947202  0.00032658261  0.060273607    0.0499528      0.00091916463
      1116         769   2071           0.00047959743  0.00032761957  0.060273607    0.0499528      0.00096416239
      1147         769   2071           0.00047989564  0.00032584341  0.060273607    0.0499528      0.00091809073
      1178         769   2071           0.00047998414  0.00032686416  0.060273607    0.0499528      0.00098622922
      1209         769   2071           0.00048056673  0.00032557171  0.060273607    0.0499528      0.00085680668
      1240         769   2071           0.0004800982   0.00032611793  0.060273607    0.0499528      0.00089888533
      1271         769   2071           0.00047990063  0.00032471803  0.060273607    0.0499528      0.00098334728
      1302         769   2071           0.00048047748  0.00032347523  0.060273607    0.0499528      0.00080809287
      1333         769   2071           0.00047986257  0.00032735561  0.060273607    0.0499528      0.0009354738 
      1364         769   2071           0.0004799244   0.00032826678  0.060273607    0.0499528      0.00072866303
      1395         769   2071           0.00048003585  0.00032691545  0.060273607    0.0499528      0.0007776325 
      1426         769   2071           0.00047976804  0.00032571248  0.060273607    0.0499528      0.00079281486
      1457         769   2071           0.00047911405  0.00032489501  0.060273607    0.0499528      0.00089405532
      1488         769   2071           0.00047901307  0.00032864727  0.060273607    0.0499528      0.00099271966
      1519         769   2071           0.00047882806  0.00032690601  0.060273607    0.0499528      0.0009333851 
      1550         769   2071           0.00047885335  0.00032565193  0.060273607    0.0499528      0.00071145452
      1581         769   2071           0.00047910807  0.00032719145  0.060273607    0.0499528      0.00083584777
      1612         769   2071           0.00047904041  0.00032919711  0.060273607    0.0499528      0.00095068705
      1643         769   2071           0.0004793104   0.00032807136  0.060273607    0.0499528      0.0008417822 
      1674         769   2071           0.00047917118  0.00032929588  0.060273607    0.0499528      0.00097068291
      1705         769   2071           0.00047953507  0.00032615661  0.060273607    0.0499528      0.0007656475 
      1736         769   2071           0.00047950474  0.00032665298  0.060273607    0.0499528      0.00074881775
      1767         769   2071           0.00047964536  0.00032798842  0.060273607    0.0499528      0.00086693973
      1798         769   2071           0.0004795244   0.00032728501  0.060273607    0.0499528      0.00097349285
      1829         769   2071           0.00047959834  0.00032787753  0.060273607    0.0499528      0.00078749971
      1860         769   2071           0.00047956976  0.00032737842  0.060273607    0.0499528      0.00095571932
      1891         769   2071           0.00047948945  0.00032754471  0.060273607    0.0499528      0.00074945965
      1922         769   2071           0.00047952219  0.00032707693  0.060273607    0.0499528      0.00074513085
      1953         769   2071           0.00047953312  0.00032609491  0.060273607    0.0499528      0.00086098252
      1984         769   2071           0.00047978791  0.00032532122  0.060273607    0.0499528      0.00082450206
      2015         769   2071           0.00047965772  0.00032861751  0.060273607    0.0499528      0.00086293632
      2046         769   2071           0.00047954834  0.00032927382  0.060273607    0.0499528      0.00071715324
      2077         769   2071           0.00047944742  0.00032499623  0.060273607    0.0499528      0.00081034665
      2108         769   2071           0.00047957146  0.00032462486  0.060273607    0.0499528      0.00086330594
      2139         769   2071           0.0004797413   0.0003252336   0.060273607    0.0499528      0.00072896264
      2170         769   2071           0.00047951845  0.00032807006  0.060273607    0.0499528      0.00073377444
      2201         769   2071           0.00047943942  0.00032721509  0.060273607    0.0499528      0.00090933404
      2232         769   2071           0.00047947734  0.00032960564  0.060273607    0.0499528      0.00076431397
      2263         769   2071           0.00047972324  0.00032760705  0.060273607    0.0499528      0.00080781338
      2294         769   2071           0.00047948761  0.0003277842   0.060273607    0.0499528      0.00065862031
      2325         769   2071           0.00047963109  0.000325488    0.060273607    0.0499528      0.00084443212
      2356         769   2071           0.00047950964  0.00032532991  0.060273607    0.0499528      0.00075933008
      2387         769   2071           0.00047942361  0.00032733077  0.060273607    0.0499528      0.00090890531
      2418         769   2071           0.00047968     0.00032446202  0.060273607    0.0499528      0.00090349573
      2449         769   2071           0.00047965197  0.00032697587  0.060273607    0.0499528      0.00098183882
      2480         769   2071           0.00047935449  0.00032641577  0.060273607    0.0499528      0.00086275465
      2511         769   2071           0.00047910516  0.0003284339   0.060273607    0.0499528      0.00084807378
      2542         769   2071           0.00047934461  0.00032782021  0.060273607    0.0499528      0.00067017426
      2573         769   2071           0.00047949423  0.00032552672  0.060273607    0.0499528      0.00076166253
      2604         769   2071           0.00047944123  0.00032758025  0.060273607    0.0499528      0.00091897883
      2635         769   2071           0.00047946508  0.00032619507  0.060273607    0.0499528      0.00087275086
      2666         769   2071           0.00047963643  0.00032791706  0.060273607    0.0499528      0.0007741741 
      2697         769   2071           0.0004795021   0.00032707815  0.060273607    0.0499528      0.00097429136
      2728         769   2071           0.0004795831   0.00032689661  0.060273607    0.0499528      0.0007700357 
      2759         769   2071           0.00047966531  0.00032670689  0.060273607    0.0499528      0.00085159259
      2790         769   2071           0.00047937755  0.00032560873  0.060273607    0.0499528      0.00085999731
      2821         769   2071           0.00047948491  0.00032557135  0.060273607    0.0499528      0.00067956475
      2852         769   2071           0.00047937634  0.00032651076  0.060273607    0.0499528      0.00072050996
      2883         769   2071           0.00047956585  0.00032808061  0.060273607    0.0499528      0.0009456484 
      2914         769   2071           0.00047956216  0.00032609228  0.060273607    0.0499528      0.00085185965
      2945         769   2071           0.00047985808  0.00032771856  0.060273607    0.0499528      0.00087124558
      2976         769   2071           0.00047951248  0.00032708185  0.060273607    0.0499528      0.00070304206
      3007         769   2071           0.00047939318  0.00032870686  0.060273607    0.0499528      0.00075704702
      3038         769   2071           0.00047927882  0.00032703054  0.060273607    0.0499528      0.0006621045 
      3069         769   2071           0.00047961477  0.00032807404  0.060273607    0.0499528      0.00076083458
      3100         769   2071           0.00047956134  0.00032810521  0.060273607    0.0499528      0.00081993719
      3131         769   2071           0.00047951101  0.00032597644  0.060273607    0.0499528      0.00081175561
      3162         769   2071           0.00047959001  0.00032685406  0.060273607    0.0499528      0.00073152081
      3193         769   2071           0.00047964221  0.00032726573  0.060273607    0.0499528      0.00079686411
      3224         769   2071           0.00047955678  0.00032850228  0.060273607    0.0499528      0.00078620711
      3255         769   2071           0.00047931242  0.00032663815  0.060273607    0.0499528      0.00085736583
      3286         769   2071           0.00047959695  0.00032713999  0.060273607    0.0499528      0.0007266458 
      3317         769   2071           0.00047950239  0.00032657981  0.060273607    0.0499528      0.00087300047
      3348         769   2071           0.00047931066  0.00032561356  0.060273607    0.0499528      0.00079383263
      3379         769   2071           0.00047911887  0.00032793576  0.060273607    0.0499528      0.00085351566
      3410         769   2071           0.00047934126  0.00032793904  0.060273607    0.0499528      0.000816174  
      3441         769   2071           0.00047975044  0.00032440265  0.060273607    0.0499528      0.00074316381
      3472         769   2071           0.00047958381  0.00032456542  0.060273607    0.0499528      0.00085958923
      3503         769   2071           0.00047958426  0.00032575823  0.060273607    0.0499528      0.00074819367
      3534         769   2071           0.00047948091  0.00032629101  0.060273607    0.0499528      0.00080999541
      3565         769   2071           0.00047931078  0.00032713881  0.060273607    0.0499528      0.00090742354
      3596         769   2071           0.00047942963  0.00032877     0.060273607    0.0499528      0.00076672101
      3627         769   2071           0.00047944127  0.00032359509  0.060273607    0.0499528      0.00075827096
      3658         769   2071           0.00047970677  0.00032606326  0.060273607    0.0499528      0.00092349217
      3689         769   2071           0.00047965358  0.00032691183  0.060273607    0.0499528      0.00096724149
      3720         769   2071           0.00047960522  0.00032631345  0.060273607    0.0499528      0.00077295242
      3751         769   2071           0.00047962666  0.00032729749  0.060273607    0.0499528      0.0008661222 
      3782         769   2071           0.00047935464  0.00032758514  0.060273607    0.0499528      0.00081490734
      3813         769   2071           0.00047945149  0.00032480063  0.060273607    0.0499528      0.00088574491
      3844         769   2071           0.00047923599  0.00032571286  0.060273607    0.0499528      0.00086532057
      3875         769   2071           0.00047948752  0.00032899836  0.060273607    0.0499528      0.00088335354
      3906         769   2071           0.00047987949  0.00032635409  0.060273607    0.0499528      0.00089734394
      3937         769   2071           0.00047970831  0.00032598985  0.060273607    0.0499528      0.00082638797
      3968         769   2071           0.00047957026  0.00032679648  0.060273607    0.0499528      0.00084311082
      3999         769   2071           0.00047931636  0.00032621959  0.060273607    0.0499528      0.00091387751
      4030         769   2071           0.00047960304  0.0003256771   0.060273607    0.0499528      0.00092758479
      4061         769   2071           0.00047923566  0.00032794581  0.060273607    0.0499528      0.00077767947
      4092         769   2071           0.00047972477  0.00032665486  0.060273607    0.0499528      0.0008571882 
      4123         769   2071           0.0004795449   0.00032625351  0.060273607    0.0499528      0.00079686466
      4154         769   2071           0.0004796612   0.00032698587  0.060273607    0.0499528      0.00070254109
      4185         769   2071           0.00047931344  0.00032433689  0.060273607    0.0499528      0.00076837435
      4216         769   2071           0.00047954261  0.00032586894  0.060273607    0.0499528      0.00084206056
      4247         769   2071           0.00047945848  0.00032845494  0.060273607    0.0499528      0.00084781967
      4278         769   2071           0.00047948277  0.00032999093  0.060273607    0.0499528      0.00079653137
      4309         769   2071           0.00047961397  0.0003298692   0.060273607    0.0499528      0.00085193297
      4340         769   2071           0.0004795581   0.00032540848  0.060273607    0.0499528      0.00085005603
      4371         769   2071           0.00047957259  0.00032664175  0.060273607    0.0499528      0.00073979721
      4402         769   2071           0.00047947302  0.00032470536  0.060273607    0.0499528      0.00082229848
      4433         769   2071           0.00047926475  0.00032845998  0.060273607    0.0499528      0.00090973366
      4464         769   2071           0.00047926453  0.00032624271  0.060273607    0.0499528      0.00096747031
      4495         769   2071           0.00047946696  0.00032574329  0.060273607    0.0499528      0.00072957097
      4526         769   2071           0.00047941478  0.0003260042   0.060273607    0.0499528      0.00093005941
      4557         769   2071           0.00047913167  0.00032723605  0.060273607    0.0499528      0.00074099925
      4588         769   2071           0.00047941897  0.00032517096  0.060273607    0.0499528      0.00077967394
      4619         769   2071           0.00047954259  0.00032735291  0.060273607    0.0499528      0.00079948027
      4650         769   2071           0.0004794657   0.00032648451  0.060273607    0.0499528      0.0007207973 
      4681         769   2071           0.00047954091  0.00032567069  0.060273607    0.0499528      0.0008623239 
      4712         769   2071           0.00047955488  0.00032608873  0.060273607    0.0499528      0.00091559495
      4743         769   2071           0.00047925089  0.00032744321  0.060273607    0.0499528      0.00077989665
      4774         769   2071           0.0004796269   0.00032639925  0.060273607    0.0499528      0.00088629246
      4805         769   2071           0.00047934309  0.00032669939  0.060273607    0.0499528      0.0008721265 
      4836         769   2071           0.00047977493  0.00032613829  0.060273607    0.0499528      0.00089074092
      4867         769   2071           0.00047932061  0.00032730932  0.060273607    0.0499528      0.00092395238
      4898         769   2071           0.00047925777  0.00032497763  0.060273607    0.0499528      0.00092442425
      4929         769   2071           0.0004795133   0.00032941834  0.060273607    0.0499528      0.00094999837
      4960         769   2071           0.00047965696  0.00032762907  0.060273607    0.0499528      0.00084854236
      4991         769   2071           0.00047978537  0.00032349325  0.060273607    0.0499528      0.00086797306
      5022         769   2071           0.00047929955  0.00032838488  0.060273607    0.0499528      0.00083711509
      5053         769   2071           0.00047966555  0.00032699835  0.060273607    0.0499528      0.00089520618
      5084         769   2071           0.0004794616   0.00032765652  0.060273607    0.0499528      0.00063346778
      5115         769   2071           0.0004797488   0.00032715157  0.060273607    0.0499528      0.00079990214
      5146         769   2071           0.00047967114  0.00032799734  0.060273607    0.0499528      0.00071316927
      5177         769   2071           0.00047932968  0.00032749972  0.060273607    0.0499528      0.00083936893
      5208         769   2071           0.00047967868  0.00032973438  0.060273607    0.0499528      0.00083527492
      5239         769   2071           0.00047937872  0.00033117873  0.060273607    0.0499528      0.00084662267
      5270         769   2071           0.00047970072  0.00032635355  0.060273607    0.0499528      0.00078324804
      5301         769   2071           0.00047924914  0.00032712137  0.060273607    0.0499528      0.00092956981
      5332         769   2071           0.00047978253  0.00032521484  0.060273607    0.0499528      0.0008345366 
      5363         769   2071           0.00047954613  0.00032885553  0.060273607    0.0499528      0.000677013  
      5394         769   2071           0.00047962569  0.00032754799  0.060273607    0.0499528      0.00082307427
      5425         769   2071           0.00047945227  0.00032653358  0.060273607    0.0499528      0.00074409675
      5456         769   2071           0.0004796803   0.00032735243  0.060273607    0.0499528      0.00067670875
      5487         769   2071           0.0004793517   0.00032590897  0.060273607    0.0499528      0.00094106697
      5518         769   2071           0.00047973283  0.00032673507  0.060273607    0.0499528      0.00091226241
      5549         769   2071           0.00047944073  0.00032642125  0.060273607    0.0499528      0.00079818049
      5580         769   2071           0.00047972052  0.00032925831  0.060273607    0.0499528      0.0008983766 
      5611         769   2071           0.00047968257  0.00032574812  0.060273607    0.0499528      0.00083351262
      5642         769   2071           0.00047943504  0.00032419512  0.060273607    0.0499528      0.00083068375
      5673         769   2071           0.00047948197  0.00032718353  0.060273607    0.0499528      0.00080953307
      5704         769   2071           0.00047983444  0.00032582237  0.060273607    0.0499528      0.00080042161
      5735         769   2071           0.000479475    0.00032642745  0.060273607    0.0499528      0.00069969474
      5766         769   2071           0.00047958882  0.00032653059  0.060273607    0.0499528      0.00083228112
      5797         769   2071           0.00047959191  0.00032549218  0.060273607    0.0499528      0.00092817755
      5828         769   2071           0.00047964303  0.00032695407  0.060273607    0.0499528      0.00067353076
      5859         769   2071           0.00047935444  0.00032856522  0.060273607    0.0499528      0.00084560162
      5890         769   2071           0.00047963668  0.00032483559  0.060273607    0.0499528      0.00085578304
      5921         769   2071           0.00047939459  0.00032776413  0.060273607    0.0499528      0.00089852556
      5952         769   2071           0.00047966288  0.0003269712   0.060273607    0.0499528      0.00073785324
      5983         769   2071           0.0004796888   0.00032820261  0.060273607    0.0499528      0.00098076026
      6014         769   2071           0.00047903742  0.00032749007  0.060273607    0.0499528      0.00076803872
      6045         769   2071           0.00047958017  0.00032838956  0.060273607    0.0499528      0.00074161761
      6076         769   2071           0.00047933453  0.00032782097  0.060273607    0.0499528      0.00081085259
      6107         769   2071           0.00047958566  0.00032685436  0.060273607    0.0499528      0.00084462396
      6138         769   2071           0.00047945353  0.00032806759  0.060273607    0.0499528      0.00076635598
      6169         769   2071           0.0004794089   0.00032634701  0.060273607    0.0499528      0.00096673249
      6200         769   2071           0.00047932257  0.00032752245  0.060273607    0.0499528      0.00081069682
      6231         769   2071           0.00047966768  0.00032716256  0.060273607    0.0499528      0.00090687952
      6262         769   2071           0.00047962059  0.00032806954  0.060273607    0.0499528      0.00090562327
      6293         769   2071           0.00047930763  0.00032698115  0.060273607    0.0499528      0.00083188307
      6324         769   2071           0.00047959674  0.00032877859  0.060273607    0.0499528      0.00086301134
      6355         769   2071           0.00047942832  0.00032590276  0.060273607    0.0499528      0.00074885366
      6386         769   2071           0.00047957574  0.00032655147  0.060273607    0.0499528      0.00092883276
      6417         769   2071           0.00047968846  0.00032759831  0.060273607    0.0499528      0.00077704525
      6448         769   2071           0.0004794661   0.00032755684  0.060273607    0.0499528      0.00092374154
      6479         769   2071           0.00047942164  0.00032597376  0.060273607    0.0499528      0.00076756544
      6510         769   2071           0.00047937575  0.00032790522  0.060273607    0.0499528      0.00071335069
      6541         769   2071           0.00047935703  0.00032561626  0.060273607    0.0499528      0.00086984178
      6572         769   2071           0.00047978199  0.00032939497  0.060273607    0.0499528      0.00092613348
      6603         769   2071           0.00047980252  0.00032790503  0.060273607    0.0499528      0.00082456075
      6634         769   2071           0.00047950464  0.00032792081  0.060273607    0.0499528      0.00075847775
      6665         769   2071           0.00047983353  0.00032578697  0.060273607    0.0499528      0.00085397553
      6696         769   2071           0.00047956496  0.00032649492  0.060273607    0.0499528      0.00086603912
      6727         769   2071           0.00047946179  0.00032794311  0.060273607    0.0499528      0.00082627128
      6758         769   2071           0.00047943716  0.00032565096  0.060273607    0.0499528      0.00087103937
      6789         769   2071           0.00047917042  0.00032546702  0.060273607    0.0499528      0.00087060268
      6820         769   2071           0.00047947379  0.00032718767  0.060273607    0.0499528      0.00080361237
      6851         769   2071           0.00047967011  0.00032635239  0.060273607    0.0499528      0.00093056885
      6882         769   2071           0.0004796569   0.00032652336  0.060273607    0.0499528      0.00089752657
      6913         769   2071           0.00047944267  0.00032907801  0.060273607    0.0499528      0.00076522379
      6944         769   2071           0.00047956677  0.00032822164  0.060273607    0.0499528      0.00095610356
      6975         769   2071           0.00047966236  0.0003265089   0.060273607    0.0499528      0.00072398356
      7006         769   2071           0.00047987406  0.00032550625  0.060273607    0.0499528      0.00085292141
      7037         769   2071           0.00047941512  0.00032768102  0.060273607    0.0499528      0.0008155857 
      7068         769   2071           0.00047938473  0.00032892744  0.060273607    0.0499528      0.00095599557
      7099         769   2071           0.0004793805   0.00032798978  0.060273607    0.0499528      0.00083384457
      7130         769   2071           0.00047958493  0.00032523249  0.060273607    0.0499528      0.00080245675
      7161         769   2071           0.00047953507  0.00032590456  0.060273607    0.0499528      0.00080783422
      7192         769   2071           0.00047955596  0.00032527123  0.060273607    0.0499528      0.00077474852
      7223         769   2071           0.00047959123  0.00032712948  0.060273607    0.0499528      0.00086564005
      7254         769   2071           0.00047935706  0.00032644809  0.060273607    0.0499528      0.00089617315
      7285         769   2071           0.00047967653  0.00032571946  0.060273607    0.0499528      0.00084785981
      7316         769   2071           0.0004796792   0.00032598436  0.060273607    0.0499528      0.00084875511
      7347         769   2071           0.00047967713  0.00032816631  0.060273607    0.0499528      0.00094809063
      7378         769   2071           0.00048002921  0.00032740655  0.060273607    0.0499528      0.00075247475
      7409         769   2071           0.00047958533  0.00032403211  0.060273607    0.0499528      0.00080524841
      7440         769   2071           0.00047966217  0.00032787305  0.060273607    0.0499528      0.00076724059
      7471         769   2071           0.00047925154  0.00032738788  0.060273607    0.0499528      0.00092992981
      7502         769   2071           0.00047938876  0.00032735676  0.060273607    0.0499528      0.00093919025
      7533         769   2071           0.00047952877  0.00032719905  0.060273607    0.0499528      0.00093060409
      7564         769   2071           0.00047953251  0.00032412387  0.060273607    0.0499528      0.00076796301
      7595         769   2071           0.00047950327  0.00032602351  0.060273607    0.0499528      0.00079526242
      7626         769   2071           0.0004795708   0.00032837955  0.060273607    0.0499528      0.0009118245 
      7657         769   2071           0.00047944772  0.00032794165  0.060273607    0.0499528      0.00084891354
      7688         769   2071           0.00047976521  0.00032465199  0.060273607    0.0499528      0.00071456116
      7719         769   2071           0.00047950118  0.00032766424  0.060273607    0.0499528      0.00081285542
      7750         769   2071           0.00047980916  0.00032680663  0.060273607    0.0499528      0.00097393455
      7781         769   2071           0.00047950586  0.00032982717  0.060273607    0.0499528      0.00085521344
      7812         769   2071           0.00047946728  0.00032853106  0.060273607    0.0499528      0.0007904947 
      7843         769   2071           0.0004793779   0.00032724057  0.060273607    0.0499528      0.00089446823
      7874         769   2071           0.00047953616  0.00032487617  0.060273607    0.0499528      0.00066849701
      7905         769   2071           0.00047953742  0.00032689774  0.060273607    0.0499528      0.00075223483
      7936         769   2071           0.00047964966  0.00032615351  0.060273607    0.0499528      0.00073777065
      7967         769   2071           0.00047991192  0.00032427578  0.060273607    0.0499528      0.00092858526
      7998         769   2071           0.0004794778   0.00032579667  0.060273607    0.0499528      0.00082901232
      8029         769   2071           0.00047949071  0.000328257    0.060273607    0.0499528      0.00080075144
      8060         769   2071           0.00047955935  0.00032488233  0.060273607    0.0499528      0.00086741472
      8091         769   2071           0.00047963259  0.00032605945  0.060273607    0.0499528      0.00070364762
      8122         769   2071           0.00047962769  0.00032561261  0.060273607    0.0499528      0.00076812952
      8153         769   2071           0.00047942337  0.00032839315  0.060273607    0.0499528      0.0008009273 
      8184         769   2071           0.00047969434  0.0003267848   0.060273607    0.0499528      0.00085519842
      8215         769   2071           0.00047934597  0.00032604028  0.060273607    0.0499528      0.00094742851
      8246         769   2071           0.00047941193  0.00032884528  0.060273607    0.0499528      0.00074041574
      8277         769   2071           0.00047931133  0.0003274558   0.060273607    0.0499528      0.00073997058
      8308         769   2071           0.00047951816  0.00032534739  0.060273607    0.0499528      0.00079602406
      8339         769   2071           0.00047983412  0.00032608812  0.060273607    0.0499528      0.00091461421
      8370         769   2071           0.00047950005  0.00032823809  0.060273607    0.0499528      0.00082537537
      8401         769   2071           0.00047929576  0.00032406389  0.060273607    0.0499528      0.00091325716
      8432         769   2071           0.00047936755  0.0003280756   0.060273607    0.0499528      0.00080307346
      8463         769   2071           0.00047934539  0.00032741025  0.060273607    0.0499528      0.00074028571
      8494         769   2071           0.00047944957  0.00032810839  0.060273607    0.0499528      0.00088261413
      8525         769   2071           0.00047953373  0.00032463806  0.060273607    0.0499528      0.00084119792
      8556         769   2071           0.00047963876  0.00032702158  0.060273607    0.0499528      0.00074836245
      8587         769   2071           0.00047944777  0.00032586441  0.060273607    0.0499528      0.00084729205
      8618         769   2071           0.00047967769  0.00032797356  0.060273607    0.0499528      0.0009611772 
      8649         769   2071           0.00047941269  0.00032753608  0.060273607    0.0499528      0.00067991694
      8680         769   2071           0.00047952592  0.00032576111  0.060273607    0.0499528      0.00080075659
      8711         769   2071           0.00047928103  0.00032545699  0.060273607    0.0499528      0.00069833034
      8742         769   2071           0.00047940127  0.0003301228   0.060273607    0.0499528      0.00093000147
      8773         769   2071           0.00047950085  0.00032795111  0.060273607    0.0499528      0.00085177743
      8804         769   2071           0.00047925241  0.00032768592  0.060273607    0.0499528      0.00076174682
      8835         769   2071           0.00047940256  0.00032737575  0.060273607    0.0499528      0.00092484264
      8866         769   2071           0.00047919047  0.00032644947  0.060273607    0.0499528      0.00081157813
      8897         769   2071           0.00047952155  0.00032625947  0.060273607    0.0499528      0.00084901291
      8928         769   2071           0.00047949746  0.00032686066  0.060273607    0.0499528      0.00065874984
      8959         769   2071           0.00047948017  0.00032858498  0.060273607    0.0499528      0.00069524192
      8990         769   2071           0.0004797275   0.00032771146  0.060273607    0.0499528      0.00085988097
      9021         769   2071           0.00047927684  0.00032747975  0.060273607    0.0499528      0.00080228993
      9052         769   2071           0.00047920315  0.00032771248  0.060273607    0.0499528      0.00089858201
      9083         769   2071           0.00047934448  0.00032450066  0.060273607    0.0499528      0.00077144568
      9114         769   2071           0.0004793946   0.00032841804  0.060273607    0.0499528      0.000742092  
      9145         769   2071           0.00047952629  0.00032592706  0.060273607    0.0499528      0.00083775538
      9176         769   2071           0.00047935749  0.0003274062   0.060273607    0.0499528      0.00080336073
      9207         769   2071           0.00047951612  0.00032651764  0.060273607    0.0499528      0.00077972184
      9238         769   2071           0.00047937637  0.00032436878  0.060273607    0.0499528      0.00078329259
      9269         769   2071           0.00047953562  0.00032601127  0.060273607    0.0499528      0.00084421815
      9300         769   2071           0.00047953576  0.00032650194  0.060273607    0.0499528      0.00077819312
      9331         769   2071           0.00047957742  0.00032686174  0.060273607    0.0499528      0.00070028267
      9362         769   2071           0.0004797049   0.00032706364  0.060273607    0.0499528      0.00076829285
      9393         769   2071           0.00047966937  0.0003271926   0.060273607    0.0499528      0.0009024297 
      9424         769   2071           0.00047941975  0.00032852818  0.060273607    0.0499528      0.00064324206
      9455         769   2071           0.00047944634  0.00032714163  0.060273607    0.0499528      0.00097177289
      9486         769   2071           0.00047941186  0.00032620686  0.060273607    0.0499528      0.00078771417
      9517         769   2071           0.00047959173  0.00032742827  0.060273607    0.0499528      0.00081600818
      9548         769   2071           0.00047962527  0.00032695717  0.060273607    0.0499528      0.00083420898
      9579         769   2071           0.00047936612  0.00032913775  0.060273607    0.0499528      0.00077446838
      9610         769   2071           0.00047942659  0.00032886803  0.060273607    0.0499528      0.00083247299
      9641         769   2071           0.00047950031  0.00032844531  0.060273607    0.0499528      0.00087184294
      9672         769   2071           0.00047954087  0.00032409194  0.060273607    0.0499528      0.00082145933
      9703         769   2071           0.00047963081  0.00032505537  0.060273607    0.0499528      0.00073434613
      9734         769   2071           0.00047961732  0.00032699171  0.060273607    0.0499528      0.00076765225
      9765         769   2071           0.00047953676  0.00032707518  0.060273607    0.0499528      0.00091337242
      9796         769   2071           0.0004796603   0.00032882573  0.060273607    0.0499528      0.00082182027
      9827         769   2071           0.00047934714  0.00032727708  0.060273607    0.0499528      0.00083737212
      9858         769   2071           0.00047968095  0.00032637312  0.060273607    0.0499528      0.00084174661
      9889         769   2071           0.00047960496  0.00032547136  0.060273607    0.0499528      0.00070790236
      9920         769   2071           0.00047941179  0.00032826795  0.060273607    0.0499528      0.0008233753 
      9951         769   2071           0.00047968519  0.00032647817  0.060273607    0.0499528      0.00075717814
      9982         769   2071           0.00047944357  0.00032992144  0.060273607    0.0499528      0.00088693042
     10013         769   2071           0.00047948279  0.00032653125  0.060273607    0.0499528      0.00089410612
     10044         769   2071           0.00047964989  0.00032887708  0.060273607    0.0499528      0.00072387712
     10075         769   2071           0.00047951457  0.00032640184  0.060273607    0.0499528      0.00078884875
     10106         769   2071           0.00047946761  0.00032620391  0.060273607    0.0499528      0.00088836553
     10137         769   2071           0.00047926189  0.00032871604  0.060273607    0.0499528      0.00088292967
     10168         769   2071           0.00047953278  0.00032569593  0.060273607    0.0499528      0.0008362048 
     10199         769   2071           0.00047951908  0.00032930254  0.060273607    0.0499528      0.00081576281
     10230         769   2071           0.00047956414  0.0003273625   0.060273607    0.0499528      0.00088717111
     10261         769   2071           0.00047969429  0.00032610048  0.060273607    0.0499528      0.00089146709
     10292         769   2071           0.00047969802  0.00032690853  0.060273607    0.0499528      0.00067134323
     10323         769   2071           0.00047977492  0.00032592579  0.060273607    0.0499528      0.00083275599
     10354         769   2071           0.00047976188  0.00032821662  0.060273607    0.0499528      0.00069676113
     10385         769   2071           0.0004794702   0.00032722875  0.060273607    0.0499528      0.0008439826 
     10416         769   2071           0.00047951673  0.00032662798  0.060273607    0.0499528      0.00089081332
     10447         769   2071           0.000479461    0.0003265948   0.060273607    0.0499528      0.00086612642
     10478         769   2071           0.00047934381  0.00032770935  0.060273607    0.0499528      0.00085352281
     10509         769   2071           0.00047932513  0.00032731446  0.060273607    0.0499528      0.00070849395
     10540         769   2071           0.00047952871  0.00032844714  0.060273607    0.0499528      0.00078353398
     10571         769   2071           0.0004797027   0.00032586043  0.060273607    0.0499528      0.0007721598 
     10602         769   2071           0.00047959137  0.00032666422  0.060273607    0.0499528      0.00074104316
     10633         769   2071           0.00047950741  0.00032859253  0.060273607    0.0499528      0.00066777994
     10664         769   2071           0.00047959116  0.0003278799   0.060273607    0.0499528      0.00071910639
     10695         769   2071           0.00047986168  0.00032650892  0.060273607    0.0499528      0.00092397186
     10726         769   2071           0.00047965161  0.00032591063  0.060273607    0.0499528      0.00077289763
     10757         769   2071           0.00047954718  0.0003238517   0.060273607    0.0499528      0.00082792992
     10788         769   2071           0.00047946078  0.00032624049  0.060273607    0.0499528      0.00098954646
     10819         769   2071           0.00047944949  0.00032638852  0.060273607    0.0499528      0.00070168372
     10850         769   2071           0.00047978231  0.00032589483  0.060273607    0.0499528      0.00078857876
     10881         769   2071           0.00047937231  0.00032627956  0.060273607    0.0499528      0.00073433729
     10912         769   2071           0.00047939155  0.00032657861  0.060273607    0.0499528      0.00077649772
     10943         769   2071           0.00047961461  0.00032686428  0.060273607    0.0499528      0.00078476188
     10974         769   2071           0.00047949055  0.00032663383  0.060273607    0.0499528      0.00097264507
     11005         769   2071           0.00047929292  0.00032786208  0.060273607    0.0499528      0.00075969272
     11036         769   2071           0.00047955321  0.00032696422  0.060273607    0.0499528      0.00084638884
     11067         769   2071           0.00047941825  0.00032791077  0.060273607    0.0499528      0.00087961646
     11098         769   2071           0.00047937281  0.00032674087  0.060273607    0.0499528      0.00080394378
     11129         769   2071           0.00047940865  0.00032654668  0.060273607    0.0499528      0.00076409399
     11160         769   2071           0.00047925232  0.0003282154   0.060273607    0.0499528      0.00090877282
     11191         769   2071           0.00047938679  0.00032507468  0.060273607    0.0499528      0.00076239986
     11222         769   2071           0.0004797273   0.00032952179  0.060273607    0.0499528      0.00068795311
     11253         769   2071           0.00047961176  0.00032637266  0.060273607    0.0499528      0.00092453766
     11284         769   2071           0.0004797625   0.00032577636  0.060273607    0.0499528      0.00086385001
     11315         769   2071           0.00047939518  0.00032873699  0.060273607    0.0499528      0.00076429256
     11346         769   2071           0.00047975135  0.00032826237  0.060273607    0.0499528      0.00078087061
     11377         769   2071           0.00047945337  0.00032633928  0.060273607    0.0499528      0.00072964759
     11408         769   2071           0.00047950389  0.00032848519  0.060273607    0.0499528      0.00081929824
     11439         769   2071           0.00047985635  0.00032571366  0.060273607    0.0499528      0.0008136861 
     11470         769   2071           0.00047957369  0.00032690614  0.060273607    0.0499528      0.00091511576
     11501         769   2071           0.00047936107  0.00032816508  0.060273607    0.0499528      0.00083728864
     11532         769   2071           0.0004793877   0.000328593    0.060273607    0.0499528      0.00086632352
     11563         769   2071           0.00047920088  0.00032529384  0.060273607    0.0499528      0.0007209771 
     11594         769   2071           0.00047918594  0.00032718836  0.060273607    0.0499528      0.00079975366
     11625         769   2071           0.00047972089  0.00032544176  0.060273607    0.0499528      0.00083884946
     11656         769   2071           0.00047943408  0.00032600535  0.060273607    0.0499528      0.00083142135
     11687         769   2071           0.00047955919  0.00032724646  0.060273607    0.0499528      0.00078227473
     11718         769   2071           0.000479193    0.00032592542  0.060273607    0.0499528      0.00083644494
     11749         769   2071           0.00047932521  0.00032725289  0.060273607    0.0499528      0.00092861474
     11780         769   2071           0.00047908066  0.00032864049  0.060273607    0.0499528      0.00074573651
     11811         769   2071           0.00047967771  0.00032502534  0.060273607    0.0499528      0.00081529589
     11842         769   2071           0.0004800365   0.00032827082  0.060273607    0.0499528      0.0008317465 
     11873         769   2071           0.00047964205  0.00032812221  0.060273607    0.0499528      0.0009752704 
     11904         769   2071           0.00047963796  0.00032659084  0.060273607    0.0499528      0.00078515708
     11935         769   2071           0.0004795015   0.0003279423   0.060273607    0.0499528      0.0009819782 
     11966         769   2071           0.00047921771  0.00032700416  0.060273607    0.0499528      0.00086254526
     11997         769   2071           0.00047941893  0.00032706625  0.060273607    0.0499528      0.00085090367
     12028         769   2071           0.00047953678  0.00032396642  0.060273607    0.0499528      0.00074806204
     12059         769   2071           0.00047984202  0.00032535597  0.060273607    0.0499528      0.00088097794
     12090         769   2071           0.00047939334  0.00032939363  0.060273607    0.0499528      0.00089187276
     12121         769   2071           0.00047961302  0.00032777244  0.060273607    0.0499528      0.00092701504
     12152         769   2071           0.00047931516  0.0003272009   0.060273607    0.0499528      0.00096363928
     12183         769   2071           0.00047978952  0.0003280791   0.060273607    0.0499528      0.00081404266
     12214         769   2071           0.000479509    0.00032739368  0.060273607    0.0499528      0.00087512285
     12245         769   2071           0.00047966919  0.00032423922  0.060273607    0.0499528      0.00080820529
     12276         769   2071           0.00047923476  0.00032686326  0.060273607    0.0499528      0.00069385697
     12307         769   2071           0.00047939679  0.00032876236  0.060273607    0.0499528      0.00077550875
     12338         769   2071           0.00047956576  0.00032704511  0.060273607    0.0499528      0.00096264261
     12369         769   2071           0.00047935636  0.00032596186  0.060273607    0.0499528      0.00090551478
     12400         769   2071           0.0004795799   0.00032800685  0.060273607    0.0499528      0.00064115998
     12431         769   2071           0.00047950175  0.00032497352  0.060273607    0.0499528      0.00075668857
     12462         769   2071           0.00047937227  0.000327265    0.060273607    0.0499528      0.00074716696
     12493         769   2071           0.00047945095  0.00032649441  0.060273607    0.0499528      0.00087360612
     12524         769   2071           0.00047944616  0.00032733977  0.060273607    0.0499528      0.00081783429
     12555         769   2071           0.00047935046  0.00032645581  0.060273607    0.0499528      0.00082160116
     12586         769   2071           0.00047954553  0.0003271901   0.060273607    0.0499528      0.00071435753
     12617         769   2071           0.00047965006  0.000326513    0.060273607    0.0499528      0.00077602431
     12648         769   2071           0.00047924777  0.00032737575  0.060273607    0.0499528      0.0007632811 
     12679         769   2071           0.00047956777  0.00032828003  0.060273607    0.0499528      0.00089924521
     12710         769   2071           0.00047956784  0.00032788487  0.060273607    0.0499528      0.00077215492
     12741         769   2071           0.00047950197  0.00032689447  0.060273607    0.0499528      0.00085435296
     12772         769   2071           0.00047929909  0.00032692457  0.060273607    0.0499528      0.00097137109
     12803         769   2071           0.00047934858  0.000329178    0.060273607    0.0499528      0.00074542776
     12834         769   2071           0.00047970638  0.00032745225  0.060273607    0.0499528      0.00091619215
     12865         769   2071           0.00047983877  0.0003249981   0.060273607    0.0499528      0.00086121809
     12896         769   2071           0.00047954586  0.00032895278  0.060273607    0.0499528      0.00090127784
     12927         769   2071           0.00047950897  0.00032970369  0.060273607    0.0499528      0.00090087483
     12958         769   2071           0.00047959308  0.00032508238  0.060273607    0.0499528      0.00089892775
     12989         769   2071           0.00047942216  0.00032690814  0.060273607    0.0499528      0.0007897309 
     13020         769   2071           0.00047950204  0.00032478336  0.060273607    0.0499528      0.00089815333
     13051         769   2071           0.00047949819  0.00032792964  0.060273607    0.0499528      0.00083468435
     13082         769   2071           0.00047956806  0.00032527423  0.060273607    0.0499528      0.00077984771
     13113         769   2071           0.00047952793  0.00032659003  0.060273607    0.0499528      0.00080899182
     13144         769   2071           0.00047936157  0.00032741076  0.060273607    0.0499528      0.00072566766
     13175         769   2071           0.0004795886   0.0003285132   0.060273607    0.0499528      0.00074713151
     13206         769   2071           0.00047967795  0.00032475831  0.060273607    0.0499528      0.00087660037
     13237         769   2071           0.00047946758  0.00032494722  0.060273607    0.0499528      0.00073364928
     13268         769   2071           0.00047953812  0.00032611294  0.060273607    0.0499528      0.00078209594
     13299         769   2071           0.00047950514  0.00032736943  0.060273607    0.0499528      0.0008326807 
     13330         769   2071           0.00047938974  0.00032804435  0.060273607    0.0499528      0.00084720254
     13361         769   2071           0.00047936026  0.00032698552  0.060273607    0.0499528      0.00079336951
     13392         769   2071           0.00047953809  0.00032792622  0.060273607    0.0499528      0.00080058245
     13423         769   2071           0.00047968081  0.00032833021  0.060273607    0.0499528      0.0007956833 
     13454         769   2071           0.00047944307  0.00032870555  0.060273607    0.0499528      0.00080834543
     13485         769   2071           0.00047952064  0.0003299784   0.060273607    0.0499528      0.00077484911
     13516         769   2071           0.00047956271  0.00032690207  0.060273607    0.0499528      0.0007944981 
     13547         769   2071           0.00047946399  0.00032577904  0.060273607    0.0499528      0.00082199911
     13578         769   2071           0.00047985316  0.00032731     0.060273607    0.0499528      0.00084507209
     13609         769   2071           0.00047948012  0.00032658373  0.060273607    0.0499528      0.00074525136
     13640         769   2071           0.00047968706  0.00032774572  0.060273607    0.0499528      0.00073705948
     13671         769   2071           0.00047942138  0.00032757836  0.060273607    0.0499528      0.00094529999
     13702         769   2071           0.00047948418  0.00032508795  0.060273607    0.0499528      0.00068958441
     13733         769   2071           0.00047955512  0.00032884906  0.060273607    0.0499528      0.00085539432
     13764         769   2071           0.00047938631  0.00032696634  0.060273607    0.0499528      0.00083262742
     13795         769   2071           0.0004796687   0.00032518534  0.060273607    0.0499528      0.00081747292
     13826         769   2071           0.00047962327  0.00032811027  0.060273607    0.0499528      0.00073137212
     13857         769   2071           0.00047944362  0.00032608842  0.060273607    0.0499528      0.00085506374
     13888         769   2071           0.00047969892  0.00032812852  0.060273607    0.0499528      0.00085357837
     13919         769   2071           0.00047958762  0.00032635994  0.060273607    0.0499528      0.0009646883 
     13950         769   2071           0.00047953563  0.00032506624  0.060273607    0.0499528      0.00080208618
     13981         769   2071           0.00047939615  0.00032749274  0.060273607    0.0499528      0.000844376  
     14012         769   2071           0.00047950338  0.00032824624  0.060273607    0.0499528      0.0007821238 
     14043         769   2071           0.00047931693  0.00032991681  0.060273607    0.0499528      0.00074918379
     14074         769   2071           0.00047958235  0.00032674881  0.060273607    0.0499528      0.00072478498
     14105         769   2071           0.000479224    0.00032934896  0.060273607    0.0499528      0.00083002766
     14136         769   2071           0.00047936241  0.00032701169  0.060273607    0.0499528      0.00073466218
     14167         769   2071           0.00047957422  0.00032464393  0.060273607    0.0499528      0.00077265116
     14198         769   2071           0.00047930892  0.00032501056  0.060273607    0.0499528      0.0010148441 
     14229         769   2071           0.00047940992  0.000330097    0.060273607    0.0499528      0.00079385018
     14260         769   2071           0.00047953757  0.00032939987  0.060273607    0.0499528      0.00070375185
     14291         769   2071           0.00047968903  0.00032717853  0.060273607    0.0499528      0.00076979088
     14322         769   2071           0.0004793172   0.0003272825   0.060273607    0.0499528      0.00090095357
     14353         769   2071           0.00047962968  0.0003253377   0.060273607    0.0499528      0.00088257068
     14384         769   2071           0.00047955551  0.00032606755  0.060273607    0.0499528      0.00089556681
     14415         769   2071           0.00047948519  0.00032671733  0.060273607    0.0499528      0.00089239228
     14446         769   2071           0.00047938679  0.00032790923  0.060273607    0.0499528      0.00066171197
     14477         769   2071           0.00047950344  0.00032694822  0.060273607    0.0499528      0.0008627013 
     14508         769   2071           0.00047951181  0.00032794015  0.060273607    0.0499528      0.00077878982
     14539         769   2071           0.00047950627  0.00032575534  0.060273607    0.0499528      0.00088330383
     14570         769   2071           0.00047949932  0.00032587305  0.060273607    0.0499528      0.00082146786
     14601         769   2071           0.00047973727  0.00032540028  0.060273607    0.0499528      0.00073638773
     14632         769   2071           0.00047957544  0.0003278664   0.060273607    0.0499528      0.00088247015
     14663         769   2071           0.00047935283  0.00032945985  0.060273607    0.0499528      0.00084569756
     14694         769   2071           0.00047961647  0.00032684504  0.060273607    0.0499528      0.00084124686
     14725         769   2071           0.00047964411  0.0003291678   0.060273607    0.0499528      0.00074125599
     14756         769   2071           0.00047966942  0.00032646512  0.060273607    0.0499528      0.00068809439
     14787         769   2071           0.00047967316  0.00032794009  0.060273607    0.0499528      0.00072377846
     14818         769   2071           0.00047954692  0.00032512701  0.060273607    0.0499528      0.00076187115
     14849         769   2071           0.00047929475  0.00032708008  0.060273607    0.0499528      0.00074170793
     14880         769   2071           0.00047950255  0.00032699178  0.060273607    0.0499528      0.00090946134
     14911         769   2071           0.00047947722  0.00032535609  0.060273607    0.0499528      0.00069149725
     14942         769   2071           0.00047951979  0.00032484681  0.060273607    0.0499528      0.00069440889
     14973         769   2071           0.00047944998  0.00032715676  0.060273607    0.0499528      0.00090823697
     15004         769   2071           0.00047953565  0.00032689839  0.060273607    0.0499528      0.000847857  
     15035         769   2071           0.00047929683  0.00032744495  0.060273607    0.0499528      0.00084192599
     15066         769   2071           0.0004795537   0.00032755099  0.060273607    0.0499528      0.00097197178
     15097         769   2071           0.00047969303  0.00032800541  0.060273607    0.0499528      0.00072769646
     15128         769   2071           0.00047924611  0.00032884927  0.060273607    0.0499528      0.00084525049
     15159         769   2071           0.00047968853  0.00032617438  0.060273607    0.0499528      0.00064726943
     15190         769   2071           0.00047960155  0.00032711355  0.060273607    0.0499528      0.00088821435
     15221         769   2071           0.00047959063  0.00032927845  0.060273607    0.0499528      0.00086306969
     15252         769   2071           0.0004794181   0.00032746302  0.060273607    0.0499528      0.0007348391 
     15283         769   2071           0.00047943631  0.00032907382  0.060273607    0.0499528      0.00083780389
     15314         769   2071           0.00047949384  0.00032668327  0.060273607    0.0499528      0.00078359719
     15345         769   2071           0.00047960252  0.00032808903  0.060273607    0.0499528      0.00074106247
     15376         769   2071           0.00047947069  0.00032767869  0.060273607    0.0499528      0.0009334877 
     15407         769   2071           0.00047935052  0.00032749004  0.060273607    0.0499528      0.00068393901
     15438         769   2071           0.00047961582  0.00032333004  0.060273607    0.0499528      0.00072425566
     15469         769   2071           0.00047932626  0.00032674974  0.060273607    0.0499528      0.00079724479
     15500         769   2071           0.00047977666  0.00032801805  0.060273607    0.0499528      0.00072313398
     15531         769   2071           0.00047939651  0.00032665063  0.060273607    0.0499528      0.00089674461
     15562         769   2071           0.00047946189  0.00032429625  0.060273607    0.0499528      0.00086242778
     15593         769   2071           0.00047934112  0.00032822531  0.060273607    0.0499528      0.00077457199
     15624         769   2071           0.00047932947  0.00032825263  0.060273607    0.0499528      0.0007842856 
     15655         769   2071           0.00047951977  0.00032673139  0.060273607    0.0499528      0.00081311481
     15686         769   2071           0.00047922816  0.00032640576  0.060273607    0.0499528      0.00085367896
     15717         769   2071           0.00047978326  0.00032708636  0.060273607    0.0499528      0.00082811768
     15748         769   2071           0.00047945371  0.00032696556  0.060273607    0.0499528      0.00078044189
     15779         769   2071           0.00047935114  0.000327244    0.060273607    0.0499528      0.0008245791 
     15810         769   2071           0.0004796544   0.00032847305  0.060273607    0.0499528      0.0008555621 
     15841         769   2071           0.00047927746  0.00032748123  0.060273607    0.0499528      0.0007366661 
     15872         769   2071           0.00047932677  0.00032622443  0.060273607    0.0499528      0.00075646442
     15903         769   2071           0.00047932541  0.00032479831  0.060273607    0.0499528      0.001086932  
     15934         769   2071           0.00047961362  0.00032776047  0.060273607    0.0499528      0.0008460383 
     15965         769   2071           0.00047963295  0.00032504201  0.060273607    0.0499528      0.00085520134
     15996         769   2071           0.00047951465  0.00032714163  0.060273607    0.0499528      0.00088565143
     16027         769   2071           0.00047962938  0.00032643883  0.060273607    0.0499528      0.00080110088
     16058         769   2071           0.00047959162  0.00032868881  0.060273607    0.0499528      0.001035186  
     16089         769   2071           0.00047925008  0.00032804167  0.060273607    0.0499528      0.00077740899
     16120         769   2071           0.00047956751  0.00032445414  0.060273607    0.0499528      0.00074528855
     16151         769   2071           0.00047982922  0.00032692233  0.060273607    0.0499528      0.00086077587
     16182         769   2071           0.00047959518  0.00032617538  0.060273607    0.0499528      0.00087429821
     16213         769   2071           0.0004793758   0.00032943141  0.060273607    0.0499528      0.00073560725
     16244         769   2071           0.00047974231  0.00032807218  0.060273607    0.0499528      0.00081982199
     16275         769   2071           0.00047955918  0.00033019106  0.060273607    0.0499528      0.00086862989
     16306         769   2071           0.00047980218  0.0003269272   0.060273607    0.0499528      0.00072923733
     16337         769   2071           0.00047971466  0.00032771854  0.060273607    0.0499528      0.00087196248
     16368         769   2071           0.00047973917  0.00032713711  0.060273607    0.0499528      0.00071847459
     16399         769   2071           0.00047951906  0.00032466442  0.060273607    0.0499528      0.00070996608
     16430         769   2071           0.00047970859  0.00032719156  0.060273607    0.0499528      0.00097197672
     16461         769   2071           0.00047948661  0.00032719468  0.060273607    0.0499528      0.00088659157
     16492         769   2071           0.00047972903  0.00032634601  0.060273607    0.0499528      0.00083568912
     16523         769   2071           0.00047946725  0.00032742877  0.060273607    0.0499528      0.00076049957
     16554         769   2071           0.000479435    0.00032514881  0.060273607    0.0499528      0.00070995353
     16585         769   2071           0.00047915146  0.00032742928  0.060273607    0.0499528      0.00074243341
     16616         769   2071           0.00047950758  0.00032943079  0.060273607    0.0499528      0.00099585309
     16647         769   2071           0.00047935246  0.00032697971  0.060273607    0.0499528      0.00086641132
     16678         769   2071           0.00047955963  0.00032605384  0.060273607    0.0499528      0.000833261  
     16709         769   2071           0.0004795482   0.00032830171  0.060273607    0.0499528      0.00077664019
     16740         769   2071           0.00047944698  0.00032593096  0.060273607    0.0499528      0.00067178211
     16771         769   2071           0.00047946524  0.00032689729  0.060273607    0.0499528      0.00070099037
     16802         769   2071           0.00047965183  0.00032646291  0.060273607    0.0499528      0.00085650193
     16833         769   2071           0.00047993748  0.000326246    0.060273607    0.0499528      0.00089537872
     16864         769   2071           0.00047967394  0.00032790669  0.060273607    0.0499528      0.00083253037
     16895         769   2071           0.00047969049  0.00032695587  0.060273607    0.0499528      0.00096179171
     16926         769   2071           0.00047944542  0.00032861162  0.060273607    0.0499528      0.00088471521
     16957         769   2071           0.0004794078   0.00032545265  0.060273607    0.0499528      0.00073212333
     16988         769   2071           0.00047949934  0.00032578376  0.060273607    0.0499528      0.00096808334
     17019         769   2071           0.00047942664  0.00032818594  0.060273607    0.0499528      0.0008744604 
     17050         769   2071           0.00047965284  0.00032793936  0.060273607    0.0499528      0.00098572628
     17081         769   2071           0.00047902897  0.00032465795  0.060273607    0.0499528      0.00078497502
     17112         769   2071           0.00047954008  0.00032617597  0.060273607    0.0499528      0.00087219143
     17143         769   2071           0.00047954252  0.00032804447  0.060273607    0.0499528      0.00086522193
     17174         769   2071           0.00047961881  0.00032662855  0.060273607    0.0499528      0.00089377943
     17205         769   2071           0.00047962748  0.00032718637  0.060273607    0.0499528      0.00082338374
     17236         769   2071           0.00047940607  0.00032618384  0.060273607    0.0499528      0.00085330857
     17267         769   2071           0.00047936979  0.00032868232  0.060273607    0.0499528      0.00084989998
     17298         769   2071           0.00047953653  0.0003255276   0.060273607    0.0499528      0.00095221688
     17329         769   2071           0.0004795308   0.00033000763  0.060273607    0.0499528      0.00078808687
     17360         769   2071           0.00047930537  0.00032705502  0.060273607    0.0499528      0.00077421446
     17391         769   2071           0.00047931574  0.00032622982  0.060273607    0.0499528      0.00088281897
     17422         769   2071           0.00047953456  0.00032694883  0.060273607    0.0499528      0.00071335361
     17453         769   2071           0.00047952211  0.00032751259  0.060273607    0.0499528      0.0008085708 
     17484         769   2071           0.00047942271  0.00032651066  0.060273607    0.0499528      0.00072356598
     17515         769   2071           0.00047968013  0.00032790814  0.060273607    0.0499528      0.00092396806
     17546         769   2071           0.00047934115  0.00032445836  0.060273607    0.0499528      0.00098935529
     17577         769   2071           0.00047978869  0.00032617618  0.060273607    0.0499528      0.00084063751
     17608         769   2071           0.00047931117  0.00032784616  0.060273607    0.0499528      0.0010162507 
     17639         769   2071           0.00047959487  0.00032428116  0.060273607    0.0499528      0.00081485901
     17670         769   2071           0.00047950204  0.00032839695  0.060273607    0.0499528      0.00084273671
     17701         769   2071           0.00047925327  0.00032602223  0.060273607    0.0499528      0.00090044899
     17732         769   2071           0.00047922677  0.00032536796  0.060273607    0.0499528      0.00073415435
     17763         769   2071           0.00047943165  0.00032911643  0.060273607    0.0499528      0.00077446405
     17794         769   2071           0.00047971233  0.00032626315  0.060273607    0.0499528      0.00094222836
     17825         769   2071           0.00047926562  0.00032535119  0.060273607    0.0499528      0.00088476493
     17856         769   2071           0.00047942325  0.00032561172  0.060273607    0.0499528      0.0008160751 
     17887         769   2071           0.00047929704  0.00032664976  0.060273607    0.0499528      0.00081805878
     17918         769   2071           0.00047948195  0.00032711595  0.060273607    0.0499528      0.00078318504
     17949         769   2071           0.000479493    0.00032824183  0.060273607    0.0499528      0.00092710089
     17980         769   2071           0.00047941414  0.00032675393  0.060273607    0.0499528      0.00077263183
     18011         769   2071           0.00047962681  0.00032644623  0.060273607    0.0499528      0.00077446498
     18042         769   2071           0.00047965725  0.00032641952  0.060273607    0.0499528      0.00084150596
     18073         769   2071           0.00047974993  0.00032741643  0.060273607    0.0499528      0.00073584422
     18104         769   2071           0.0004795089   0.00032713802  0.060273607    0.0499528      0.00088610019
     18135         769   2071           0.00047950245  0.00032701322  0.060273607    0.0499528      0.00082498259
     18166         769   2071           0.00047956979  0.00032537937  0.060273607    0.0499528      0.00093744077
     18197         769   2071           0.00047929595  0.00032818338  0.060273607    0.0499528      0.00088791974
     18228         769   2071           0.00047941441  0.00032676284  0.060273607    0.0499528      0.00082058759
     18259         769   2071           0.00047936446  0.00032783034  0.060273607    0.0499528      0.00076570441
     18290         769   2071           0.00047944937  0.00032867851  0.060273607    0.0499528      0.00078359078
     18321         769   2071           0.00047942492  0.00032651191  0.060273607    0.0499528      0.00086730861
     18352         769   2071           0.00047968585  0.00032731654  0.060273607    0.0499528      0.00079521687
     18383         769   2071           0.00047953305  0.00032676346  0.060273607    0.0499528      0.0008674001 
     18414         769   2071           0.00047931907  0.00032714762  0.060273607    0.0499528      0.00087929261
     18445         769   2071           0.00047963604  0.00032629356  0.060273607    0.0499528      0.00095081247
     18476         769   2071           0.00047940257  0.00032813037  0.060273607    0.0499528      0.00092485578
     18507         769   2071           0.00047969154  0.00032692199  0.060273607    0.0499528      0.00086485964
     18538         769   2071           0.00047929588  0.00032541387  0.060273607    0.0499528      0.00093874144
     18569         769   2071           0.00047972139  0.00032799372  0.060273607    0.0499528      0.00083703718
     18600         769   2071           0.00047980193  0.00032774091  0.060273607    0.0499528      0.0009087002 
     18631         769   2071           0.00047947267  0.00032766887  0.060273607    0.0499528      0.00086699163
     18662         769   2071           0.00047966363  0.00032818369  0.060273607    0.0499528      0.00087671959
     18693         769   2071           0.00047938086  0.00032751275  0.060273607    0.0499528      0.00087864959
     18724         769   2071           0.00047939558  0.00032915277  0.060273607    0.0499528      0.0009301754 
     18755         769   2071           0.00047945234  0.00032841938  0.060273607    0.0499528      0.00074932108
     18786         769   2071           0.00047937895  0.00032697036  0.060273607    0.0499528      0.00089129203
     18817         769   2071           0.00047935241  0.00032832743  0.060273607    0.0499528      0.00084895257
     18848         769   2071           0.00047956324  0.00032885893  0.060273607    0.0499528      0.00085272571
     18879         769   2071           0.000479477    0.00032742162  0.060273607    0.0499528      0.00075233875
     18910         769   2071           0.00047953928  0.00032712941  0.060273607    0.0499528      0.00093358788
     18941         769   2071           0.00047927038  0.00032750644  0.060273607    0.0499528      0.00088405964
     18972         769   2071           0.00047952359  0.00032596922  0.060273607    0.0499528      0.00077287736
     19003         769   2071           0.00047948168  0.00032566891  0.060273607    0.0499528      0.00085931662
     19034         769   2071           0.00047966105  0.0003270069   0.060273607    0.0499528      0.00079650749
     19065         769   2071           0.00047941161  0.00032445855  0.060273607    0.0499528      0.00073347482
     19096         769   2071           0.00047964936  0.00032652579  0.060273607    0.0499528      0.00085609165
     19127         769   2071           0.00047948025  0.00032727881  0.060273607    0.0499528      0.00082665593
     19158         769   2071           0.00047937265  0.00032741549  0.060273607    0.0499528      0.0008293597 
     19189         769   2071           0.00047964412  0.00032612018  0.060273607    0.0499528      0.00091447513
     19220         769   2071           0.00047966089  0.00032919073  0.060273607    0.0499528      0.00072264272
     19251         769   2071           0.00047953841  0.00032921946  0.060273607    0.0499528      0.00079507283
     19282         769   2071           0.00047951311  0.0003254436   0.060273607    0.0499528      0.0008739736 
     19313         769   2071           0.00047934128  0.00032582243  0.060273607    0.0499528      0.00094588087
     19344         769   2071           0.00047950542  0.00032875562  0.060273607    0.0499528      0.00070641963
     19375         769   2071           0.00047951254  0.00032687958  0.060273607    0.0499528      0.00082508105
     19406         769   2071           0.00047958381  0.00032554897  0.060273607    0.0499528      0.00088443916
     19437         769   2071           0.0004797032   0.00032452848  0.060273607    0.0499528      0.00077683722
     19468         769   2071           0.00047939766  0.00032587149  0.060273607    0.0499528      0.00070945676
     19499         769   2071           0.0004793158   0.00032621856  0.060273607    0.0499528      0.00091298993
     19530         769   2071           0.00047981114  0.00032725297  0.060273607    0.0499528      0.00077124236
     19561         769   2071           0.00047966011  0.00032506088  0.060273607    0.0499528      0.00076995785
     19592         769   2071           0.00047968656  0.00032667337  0.060273607    0.0499528      0.00079886272
     19623         769   2071           0.00047946733  0.00032874879  0.060273607    0.0499528      0.00067393511
     19654         769   2071           0.00047951842  0.00032753369  0.060273607    0.0499528      0.00084287622
     19685         769   2071           0.00047923642  0.00032783681  0.060273607    0.0499528      0.00084235326
     19716         769   2071           0.00047965589  0.00032548071  0.060273607    0.0499528      0.0009786662 
     19747         769   2071           0.00047932922  0.00032646595  0.060273607    0.0499528      0.00089547771
     19778         769   2071           0.00047946624  0.00032907892  0.060273607    0.0499528      0.00077856179
     19809         769   2071           0.00047963306  0.00032851865  0.060273607    0.0499528      0.0008435627 
     19840         769   2071           0.00047940749  0.00032500776  0.060273607    0.0499528      0.00072954531
     19871         769   2071           0.00047940982  0.00032570229  0.060273607    0.0499528      0.00075779423
     19902         769   2071           0.00047976872  0.00032530469  0.060273607    0.0499528      0.00085386385
     19933         769   2071           0.00047947695  0.00032598225  0.060273607    0.0499528      0.00093589326
     19964         769   2071           0.00047951588  0.00032694398  0.060273607    0.0499528      0.00089133917
     19995         769   2071           0.00047940368  0.00032806802  0.060273607    0.0499528      0.00085076381
     20026         769   2071           0.00047973456  0.00032637689  0.060273607    0.0499528      0.00084826297
     20057         769   2071           0.00047931423  0.00032785763  0.060273607    0.0499528      0.00086710332
     20088         769   2071           0.00047975989  0.00032726958  0.060273607    0.0499528      0.00079036816
     20119         769   2071           0.00047984081  0.00032729427  0.060273607    0.0499528      0.00075538041
     20150         769   2071           0.00047966602  0.0003253809   0.060273607    0.0499528      0.00078884766
     20181         769   2071           0.00047972297  0.00032663615  0.060273607    0.0499528      0.00084846579
     20212         769   2071           0.00047935373  0.00032966612  0.060273607    0.0499528      0.00084524193
     20243         769   2071           0.00047961742  0.00032482194  0.060273607    0.0499528      0.00065959984
     20274         769   2071           0.00047963117  0.00032747965  0.060273607    0.0499528      0.00085652031
     20305         769   2071           0.00047959302  0.00032862422  0.060273607    0.0499528      0.00081219486
     20336         769   2071           0.00047928259  0.00032744829  0.060273607    0.0499528      0.00090166046
     20367         769   2071           0.00047941188  0.0003260969   0.060273607    0.0499528      0.00084881529
     20398         769   2071           0.0004792012   0.00032769679  0.060273607    0.0499528      0.00084463665
     20429         769   2071           0.00047952439  0.00032734744  0.060273607    0.0499528      0.00070032187
     20460         769   2071           0.00047922755  0.00032943165  0.060273607    0.0499528      0.00070515165
     20491         769   2071           0.00047942775  0.00032920019  0.060273607    0.0499528      0.00071359467
     20522         769   2071           0.00047940086  0.00032539314  0.060273607    0.0499528      0.0008583476 
     20553         769   2071           0.00047967343  0.00032870061  0.060273607    0.0499528      0.00087734122
     20584         769   2071           0.00047951819  0.00032434184  0.060273607    0.0499528      0.00084576479
     20615         769   2071           0.00047953773  0.0003266478   0.060273607    0.0499528      0.00078997939
     20646         769   2071           0.00047953074  0.00032572619  0.060273607    0.0499528      0.00089002934
     20677         769   2071           0.00047960739  0.00032696665  0.060273607    0.0499528      0.00062859631
     20708         769   2071           0.00047975397  0.00032835732  0.060273607    0.0499528      0.00094082244
     20739         769   2071           0.00047945079  0.00032758945  0.060273607    0.0499528      0.00082662518
     20770         769   2071           0.00047991735  0.00032506393  0.060273607    0.0499528      0.00085319785
     20801         769   2071           0.00047950942  0.00033091094  0.060273607    0.0499528      0.00067565507
     20832         769   2071           0.00047942237  0.00032641411  0.060273607    0.0499528      0.00072750065
     20863         769   2071           0.00047961919  0.00032656028  0.060273607    0.0499528      0.00099356479
     20894         769   2071           0.00047939465  0.00032881026  0.060273607    0.0499528      0.00075053909
     20925         769   2071           0.0004794829   0.0003268143   0.060273607    0.0499528      0.00081989921
     20956         769   2071           0.00047963234  0.00032906845  0.060273607    0.0499528      0.00085682669
     20987         769   2071           0.00047928543  0.00032870235  0.060273607    0.0499528      0.0008940954 
     21018         769   2071           0.00047961199  0.00032729204  0.060273607    0.0499528      0.00087914785
     21049         769   2071           0.00047951738  0.00032656754  0.060273607    0.0499528      0.00078406926
     21080         769   2071           0.00047959861  0.00032837963  0.060273607    0.0499528      0.00095410084
     21111         769   2071           0.00047950272  0.00032874378  0.060273607    0.0499528      0.00086971967
     21142         769   2071           0.00047931665  0.0003283948   0.060273607    0.0499528      0.0007936294 
     21173         769   2071           0.00047938394  0.0003272343   0.060273607    0.0499528      0.00089531478
     21204         769   2071           0.00047944509  0.00032794473  0.060273607    0.0499528      0.00077205273
     21235         769   2071           0.00047970939  0.00032592578  0.060273607    0.0499528      0.00088794062
     21266         769   2071           0.0004797122   0.0003243023   0.060273607    0.0499528      0.00086228323
     21297         769   2071           0.00047948635  0.00032905719  0.060273607    0.0499528      0.00088750305
     21328         769   2071           0.00047957224  0.00032936527  0.060273607    0.0499528      0.0009969922 
     21359         769   2071           0.00047930742  0.00032866599  0.060273607    0.0499528      0.00082044491
     21390         769   2071           0.0004795668   0.00032653276  0.060273607    0.0499528      0.00092612734
     21421         769   2071           0.0004795335   0.00032545848  0.060273607    0.0499528      0.00076189167
     21452         769   2071           0.00047947988  0.00032914182  0.060273607    0.0499528      0.00088877069
     21483         769   2071           0.00047959275  0.00032745258  0.060273607    0.0499528      0.00088589118
     21514         769   2071           0.0004795088   0.00032715091  0.060273607    0.0499528      0.00082424621
     21545         769   2071           0.00047964241  0.00032730816  0.060273607    0.0499528      0.00083459694
     21576         769   2071           0.00047965236  0.00032851234  0.060273607    0.0499528      0.00071616164
     21607         769   2071           0.00047947691  0.00032745685  0.060273607    0.0499528      0.00091135914
     21638         769   2071           0.00047940399  0.00032871361  0.060273607    0.0499528      0.00078557538
     21669         769   2071           0.00047975212  0.00032420832  0.060273607    0.0499528      0.0007879524 
     21700         769   2071           0.00047936521  0.00032636917  0.060273607    0.0499528      0.0010023535 
     21731         769   2071           0.0004794596   0.00032715738  0.060273607    0.0499528      0.00069450395
     21762         769   2071           0.00047952049  0.00032504155  0.060273607    0.0499528      0.00084022259
     21793         769   2071           0.00047954093  0.00032675009  0.060273607    0.0499528      0.00087438534
     21824         769   2071           0.00047935816  0.00032504359  0.060273607    0.0499528      0.00069683157
     21855         769   2071           0.00047935811  0.00032801782  0.060273607    0.0499528      0.00077071708
     21886         769   2071           0.00047942781  0.0003260702   0.060273607    0.0499528      0.00084697294
     21917         769   2071           0.00047972195  0.00032798691  0.060273607    0.0499528      0.00079143306
     21948         769   2071           0.00047943557  0.00032730056  0.060273607    0.0499528      0.00095047245
     21979         769   2071           0.00047923062  0.00032761102  0.060273607    0.0499528      0.00077130637
     22010         769   2071           0.00047956584  0.00032818571  0.060273607    0.0499528      0.00089281157
     22041         769   2071           0.00047953462  0.00032819668  0.060273607    0.0499528      0.0009309461 
     22072         769   2071           0.00047941424  0.00032712169  0.060273607    0.0499528      0.00087764419
     22103         769   2071           0.00047969609  0.00032845113  0.060273607    0.0499528      0.00083499142
     22134         769   2071           0.00047972686  0.00032964253  0.060273607    0.0499528      0.00089397809
     22165         769   2071           0.00047946543  0.00032675495  0.060273607    0.0499528      0.00090824435
     22196         769   2071           0.00047923325  0.0003272946   0.060273607    0.0499528      0.00085453705
     22227         769   2071           0.00047895044  0.00032439289  0.060273607    0.0499528      0.00088833867
     22258         769   2071           0.00047970434  0.00032608133  0.060273607    0.0499528      0.00088603497
     22289         769   2071           0.00047941195  0.00032916145  0.060273607    0.0499528      0.00082454509
     22320         769   2071           0.00047952698  0.00032753939  0.060273607    0.0499528      0.0007417002 
     22351         769   2071           0.00047951925  0.00032613674  0.060273607    0.0499528      0.00071341304
     22382         769   2071           0.00047932705  0.0003281365   0.060273607    0.0499528      0.00087657478
     22413         769   2071           0.00047935365  0.00032738887  0.060273607    0.0499528      0.00086639678
     22444         769   2071           0.00047936254  0.00032741616  0.060273607    0.0499528      0.00080368536
     22475         769   2071           0.00047945339  0.00032540083  0.060273607    0.0499528      0.000853567  
     22506         769   2071           0.00047937873  0.00032742323  0.060273607    0.0499528      0.0007708219 
     22537         769   2071           0.00047937117  0.00032809029  0.060273607    0.0499528      0.0009330058 
     22568         769   2071           0.00047951147  0.0003273983   0.060273607    0.0499528      0.00086247384
     22599         769   2071           0.00047965085  0.00032803808  0.060273607    0.0499528      0.00084286895
     22630         769   2071           0.00047949559  0.00032823115  0.060273607    0.0499528      0.00076166645
     22661         769   2071           0.00047934291  0.00032537471  0.060273607    0.0499528      0.00087163744
     22692         769   2071           0.00047925924  0.00032737392  0.060273607    0.0499528      0.00076879162
     22723         769   2071           0.00047954166  0.00032697017  0.060273607    0.0499528      0.0008295838 
     22754         769   2071           0.00047970934  0.00032830813  0.060273607    0.0499528      0.00075492809
     22785         769   2071           0.00047956744  0.000328299    0.060273607    0.0499528      0.00096401246
     22816         769   2071           0.00047965312  0.00032582156  0.060273607    0.0499528      0.0007663311 
     22847         769   2071           0.00047947763  0.00032856499  0.060273607    0.0499528      0.00081831595
     22878         769   2071           0.00047954212  0.00032732223  0.060273607    0.0499528      0.00080816451
     22909         769   2071           0.00047946447  0.00032628092  0.060273607    0.0499528      0.00084791571
     22940         769   2071           0.00047963305  0.00032895787  0.060273607    0.0499528      0.00069081751
     22971         769   2071           0.00047956565  0.00033058045  0.060273607    0.0499528      0.0008906782 
     23002         769   2071           0.00047951948  0.00032621708  0.060273607    0.0499528      0.00091671027
     23033         769   2071           0.00047974774  0.00032752414  0.060273607    0.0499528      0.00079360995
     23064         769   2071           0.00047903518  0.00032800682  0.060273607    0.0499528      0.00078238933
     23095         769   2071           0.00047969414  0.00032771451  0.060273607    0.0499528      0.0008768305 
     23126         769   2071           0.00047949656  0.000326438    0.060273607    0.0499528      0.00080814898
     23157         769   2071           0.0004795739   0.00032623866  0.060273607    0.0499528      0.00090703378
     23188         769   2071           0.00047960394  0.00032499421  0.060273607    0.0499528      0.00096399173
     23219         769   2071           0.00047951841  0.00032892701  0.060273607    0.0499528      0.00096908933
     23250         769   2071           0.00047970609  0.00032760441  0.060273607    0.0499528      0.00073875926
     23281         769   2071           0.00047941408  0.00032786006  0.060273607    0.0499528      0.00085186666
     23312         769   2071           0.00047935829  0.00032902607  0.060273607    0.0499528      0.0006981232 
     23343         769   2071           0.00047924606  0.00032775634  0.060273607    0.0499528      0.00078289619
     23374         769   2071           0.00047926667  0.00032707759  0.060273607    0.0499528      0.00089401349
     23405         769   2071           0.00047943549  0.00032854251  0.060273607    0.0499528      0.00082111454
     23436         769   2071           0.00047968814  0.00032568169  0.060273607    0.0499528      0.00089210648
     23467         769   2071           0.00047953781  0.00032541932  0.060273607    0.0499528      0.00071886153
     23498         769   2071           0.00047953845  0.00032554684  0.060273607    0.0499528      0.00084617511
     23529         769   2071           0.00047917908  0.00032842145  0.060273607    0.0499528      0.00089603902
     23560         769   2071           0.00047957709  0.00032774531  0.060273607    0.0499528      0.00089017024
     23591         769   2071           0.00047963658  0.00032738016  0.060273607    0.0499528      0.00090262984
     23622         769   2071           0.00047961892  0.00032798025  0.060273607    0.0499528      0.00075033855
     23653         769   2071           0.00047958052  0.00032663785  0.060273607    0.0499528      0.00083093351
     23684         769   2071           0.00047951061  0.00032696259  0.060273607    0.0499528      0.0008354063 
     23715         769   2071           0.00047970976  0.00032882827  0.060273607    0.0499528      0.00077586379
     23746         769   2071           0.00047951648  0.00032579834  0.060273607    0.0499528      0.00074933615
     23777         769   2071           0.00047976612  0.00032488906  0.060273607    0.0499528      0.00079873212
     23808         769   2071           0.00047936526  0.00032741162  0.060273607    0.0499528      0.00090304402
     23839         769   2071           0.00047945182  0.00032771819  0.060273607    0.0499528      0.00074457769
     23870         769   2071           0.00047938547  0.00032534072  0.060273607    0.0499528      0.00080367146
     23901         769   2071           0.00047952245  0.00032863477  0.060273607    0.0499528      0.00075184288
     23932         769   2071           0.00047962508  0.00032582885  0.060273607    0.0499528      0.00085130428
     23963         769   2071           0.00047990782  0.0003275763   0.060273607    0.0499528      0.00080320831
     23994         769   2071           0.00047968182  0.00032628782  0.060273607    0.0499528      0.00091339083
     24025         769   2071           0.00047903444  0.00033014622  0.060273607    0.0499528      0.00088547535
     24056         769   2071           0.00047955963  0.00032552281  0.060273607    0.0499528      0.00079304636
     24087         769   2071           0.0004793596   0.00032520026  0.060273607    0.0499528      0.00074185271
     24118         769   2071           0.00047951578  0.00032559279  0.060273607    0.0499528      0.00086108725
     24149         769   2071           0.00047943787  0.00032483182  0.060273607    0.0499528      0.00073093363
     24180         769   2071           0.00047968347  0.00032759126  0.060273607    0.0499528      0.00094502808
     24211         769   2071           0.00047947756  0.0003260362   0.060273607    0.0499528      0.00086954815
     24242         769   2071           0.000479578    0.00032562859  0.060273607    0.0499528      0.00071639353
     24273         769   2071           0.00047965426  0.00032639848  0.060273607    0.0499528      0.00091951818
     24304         769   2071           0.0004795633   0.00032718522  0.060273607    0.0499528      0.00081102509
     24335         769   2071           0.00047950715  0.0003264047   0.060273607    0.0499528      0.00085675188
     24366         769   2071           0.00047964161  0.00032821481  0.060273607    0.0499528      0.00095112294
     24397         769   2071           0.00047962259  0.00032503971  0.060273607    0.0499528      0.00071728749
     24428         769   2071           0.00047942822  0.0003282562   0.060273607    0.0499528      0.00084210463
     24459         769   2071           0.00047951578  0.00032571782  0.060273607    0.0499528      0.00067976316
     24490         769   2071           0.000479661    0.0003277469   0.060273607    0.0499528      0.00088395097
     24521         769   2071           0.00047955164  0.00032683191  0.060273607    0.0499528      0.00070974857
     24552         769   2071           0.00047920912  0.00032650585  0.060273607    0.0499528      0.00072800678
     24583         769   2071           0.00047932625  0.00032787095  0.060273607    0.0499528      0.00079810097
     24614         769   2071           0.00047955985  0.00032840525  0.060273607    0.0499528      0.00093053289
     24645         769   2071           0.00047950543  0.00032570221  0.060273607    0.0499528      0.00095627524
     24676         769   2071           0.00047959894  0.00032785572  0.060273607    0.0499528      0.00087087722
     24707         769   2071           0.00047936308  0.0003279303   0.060273607    0.0499528      0.00084452933
     24738         769   2071           0.00047939807  0.00032819204  0.060273607    0.0499528      0.00085707228
     24769         769   2071           0.00047975339  0.00032853472  0.060273607    0.0499528      0.00072092251
     24800         769   2071           0.00047930639  0.00032896483  0.060273607    0.0499528      0.00088743913
     24831         769   2071           0.00047944201  0.00032689873  0.060273607    0.0499528      0.00084171193
     24862         769   2071           0.00047965642  0.00032822097  0.060273607    0.0499528      0.00070477684
     24893         769   2071           0.0004795828   0.00032746297  0.060273607    0.0499528      0.00078061974
     24924         769   2071           0.00047947597  0.00032797055  0.060273607    0.0499528      0.00068556507
     24955         769   2071           0.0004791287   0.00032719634  0.060273607    0.0499528      0.00082449965
     24986         769   2071           0.00047946951  0.00032808426  0.060273607    0.0499528      0.00094376899
     25017         769   2071           0.00047972854  0.00032562974  0.060273607    0.0499528      0.00078250122
     25048         769   2071           0.00047948844  0.00032791655  0.060273607    0.0499528      0.000796076  
     25079         769   2071           0.00047929468  0.00032836825  0.060273607    0.0499528      0.00079909866
     25110         769   2071           0.00047944476  0.00033012982  0.060273607    0.0499528      0.0008260905 
     25141         769   2071           0.00047964747  0.00032591187  0.060273607    0.0499528      0.0007925204 
     25172         769   2071           0.00047934291  0.00032454463  0.060273607    0.0499528      0.00090042911
     25203         769   2071           0.00047951367  0.00032929139  0.060273607    0.0499528      0.00096331422
     25234         769   2071           0.0004796831   0.00032831594  0.060273607    0.0499528      0.00088868378
     25265         769   2071           0.00047963452  0.00032795703  0.060273607    0.0499528      0.00073671715
     25296         769   2071           0.0004796901   0.00032831084  0.060273607    0.0499528      0.000851765  
     25327         769   2071           0.00047972193  0.00032526022  0.060273607    0.0499528      0.00084595808
     25358         769   2071           0.00047974087  0.00032672268  0.060273607    0.0499528      0.00078708176
     25389         769   2071           0.00047979299  0.00032845517  0.060273607    0.0499528      0.00086719854
     25420         769   2071           0.00047957309  0.00032761535  0.060273607    0.0499528      0.0010103279 
     25451         769   2071           0.00047938726  0.00032862344  0.060273607    0.0499528      0.00083377463
     25482         769   2071           0.00047952025  0.00032985449  0.060273607    0.0499528      0.00073379739
     25513         769   2071           0.00047965885  0.00032599868  0.060273607    0.0499528      0.00078007528
     25544         769   2071           0.00047951746  0.00032628249  0.060273607    0.0499528      0.00071183136
     25575         769   2071           0.00047966547  0.00032725302  0.060273607    0.0499528      0.00080833083
     25606         769   2071           0.00047994592  0.00032734641  0.060273607    0.0499528      0.00073954504
     25637         769   2071           0.00047946375  0.00032758752  0.060273607    0.0499528      0.00081433194
     25668         769   2071           0.00047951511  0.00032823544  0.060273607    0.0499528      0.00080398246
     25699         769   2071           0.00047938347  0.00032712898  0.060273607    0.0499528      0.0009823697 
     25730         769   2071           0.00047956318  0.00032830705  0.060273607    0.0499528      0.00093244351
     25761         769   2071           0.00047945213  0.00032577323  0.060273607    0.0499528      0.00080801426
     25792         769   2071           0.00047949395  0.00032914537  0.060273607    0.0499528      0.00086320567
     25823         769   2071           0.00047922734  0.00032773551  0.060273607    0.0499528      0.00077700228
     25854         769   2071           0.00047956948  0.00032618408  0.060273607    0.0499528      0.00070858568
     25885         769   2071           0.00047947597  0.0003290489   0.060273607    0.0499528      0.00069904888
     25916         769   2071           0.00047935852  0.00032739478  0.060273607    0.0499528      0.00077751257
     25947         769   2071           0.00047944834  0.00032575465  0.060273607    0.0499528      0.00065821285
     25978         769   2071           0.00047953257  0.00032547131  0.060273607    0.0499528      0.00090586565
     26009         769   2071           0.00047953291  0.00032833319  0.060273607    0.0499528      0.00073201921
     26040         769   2071           0.00047947021  0.00032480627  0.060273607    0.0499528      0.00085545009
     26071         769   2071           0.00047951862  0.00032627818  0.060273607    0.0499528      0.00094268414
     26102         769   2071           0.00047927409  0.00032733229  0.060273607    0.0499528      0.00082257138
     26133         769   2071           0.00047950373  0.00032584866  0.060273607    0.0499528      0.00094152454
     26164         769   2071           0.00047963085  0.00032808801  0.060273607    0.0499528      0.00074308916
     26195         769   2071           0.00047965884  0.00032612205  0.060273607    0.0499528      0.00085076543
     26226         769   2071           0.00047959812  0.00032703505  0.060273607    0.0499528      0.00086587275
     26257         769   2071           0.00047944276  0.00032734908  0.060273607    0.0499528      0.0008973151 
     26288         769   2071           0.00047957417  0.00032628116  0.060273607    0.0499528      0.00087348442
     26319         769   2071           0.00047969219  0.00032472128  0.060273607    0.0499528      0.00089186677
     26350         769   2071           0.00047945928  0.00032403947  0.060273607    0.0499528      0.00073009128
     26381         769   2071           0.00047990674  0.00032520525  0.060273607    0.0499528      0.00087923538
     26412         769   2071           0.00047952217  0.00032644505  0.060273607    0.0499528      0.00083596369
     26443         769   2071           0.00047940449  0.00032758204  0.060273607    0.0499528      0.00088445331
     26474         769   2071           0.00047978291  0.00032520904  0.060273607    0.0499528      0.00086249191
     26505         769   2071           0.00047960732  0.00032522933  0.060273607    0.0499528      0.00087514844
     26536         769   2071           0.00047946979  0.00032701724  0.060273607    0.0499528      0.00078000002
     26567         769   2071           0.00047963127  0.00032538367  0.060273607    0.0499528      0.00081314108
     26598         769   2071           0.00047954951  0.00032751479  0.060273607    0.0499528      0.00075308399
     26629         769   2071           0.00047978712  0.00032658459  0.060273607    0.0499528      0.00087144316
     26660         769   2071           0.00047940756  0.00032713493  0.060273607    0.0499528      0.00082806701
     26691         769   2071           0.0004794163   0.00032682705  0.060273607    0.0499528      0.00078463122
     26722         769   2071           0.00047949421  0.00032712099  0.060273607    0.0499528      0.00087620407
     26753         769   2071           0.00047944984  0.00032688693  0.060273607    0.0499528      0.00070033796
     26784         769   2071           0.00047958538  0.00032971834  0.060273607    0.0499528      0.00070185707
     26815         769   2071           0.00047962737  0.00032737248  0.060273607    0.0499528      0.0007757171 
     26846         769   2071           0.00047964101  0.0003255834   0.060273607    0.0499528      0.0009028133 
     26877         769   2071           0.00047935254  0.00032629547  0.060273607    0.0499528      0.00076201477
     26908         769   2071           0.00047957636  0.00032699592  0.060273607    0.0499528      0.00073951614
     26939         769   2071           0.00047954462  0.00032554344  0.060273607    0.0499528      0.00077918537
     26970         769   2071           0.00047935885  0.00032817827  0.060273607    0.0499528      0.00079560493
     27001         769   2071           0.00047970041  0.00032988131  0.060273607    0.0499528      0.00078299466
     27032         769   2071           0.00048008019  0.00032623405  0.060273607    0.0499528      0.00077631544
     27063         769   2071           0.0004794263   0.00032440465  0.060273607    0.0499528      0.00075508255
     27094         769   2071           0.00047934828  0.00032780759  0.060273607    0.0499528      0.00070967066
     27125         769   2071           0.00047944928  0.00032821323  0.060273607    0.0499528      0.00082610276
     27156         769   2071           0.00047935945  0.00032505588  0.060273607    0.0499528      0.0007824712 
     27187         769   2071           0.00047929425  0.00032731288  0.060273607    0.0499528      0.00087144953
     27218         769   2071           0.00047982987  0.00032606647  0.060273607    0.0499528      0.00088334479
     27249         769   2071           0.00047964259  0.00032713207  0.060273607    0.0499528      0.0008460588 
     27280         769   2071           0.00047971985  0.00032498181  0.060273607    0.0499528      0.00088854354
     27311         769   2071           0.0004794728   0.00032641738  0.060273607    0.0499528      0.00086049292
     27342         769   2071           0.00047971589  0.00032469611  0.060273607    0.0499528      0.00088344918
     27373         769   2071           0.00047965448  0.00032667705  0.060273607    0.0499528      0.0009266044 
     27404         769   2071           0.00047937989  0.00032657998  0.060273607    0.0499528      0.00085145191
     27435         769   2071           0.00047969647  0.00032567832  0.060273607    0.0499528      0.00085434729
     27466         769   2071           0.00047953018  0.00032855786  0.060273607    0.0499528      0.00068865395
     27497         769   2071           0.00047939587  0.00032582434  0.060273607    0.0499528      0.00069289016
     27528         769   2071           0.00047953681  0.00032733564  0.060273607    0.0499528      0.00079128202
     27559         769   2071           0.00047960761  0.00032564599  0.060273607    0.0499528      0.00094745406
     27590         769   2071           0.00047952294  0.00032596423  0.060273607    0.0499528      0.00085559523
     27621         769   2071           0.00047944366  0.00032918311  0.060273607    0.0499528      0.00079025397
     27652         769   2071           0.00047952003  0.00032804524  0.060273607    0.0499528      0.00089606454
     27683         769   2071           0.000479292    0.00032825262  0.060273607    0.0499528      0.00084107394
     27714         769   2071           0.00047953752  0.0003257152   0.060273607    0.0499528      0.00075766868
     27745         769   2071           0.00047959484  0.00032601253  0.060273607    0.0499528      0.00084512636
     27776         769   2071           0.00047923827  0.00032560446  0.060273607    0.0499528      0.00073934295
     27807         769   2071           0.00047975834  0.00032768464  0.060273607    0.0499528      0.00090050499
     27838         769   2071           0.00047938801  0.00032474102  0.060273607    0.0499528      0.00080063097
     27869         769   2071           0.00047949805  0.00032819941  0.060273607    0.0499528      0.00082117803
     27900         769   2071           0.00047974645  0.00032916067  0.060273607    0.0499528      0.00077853194
     27931         769   2071           0.00047962258  0.00032407057  0.060273607    0.0499528      0.00076725773
     27962         769   2071           0.00047945228  0.00032604422  0.060273607    0.0499528      0.00086598675
     27993         769   2071           0.00047955379  0.00032680482  0.060273607    0.0499528      0.00087557578
     28024         769   2071           0.0004797101   0.00032592959  0.060273607    0.0499528      0.00079047331
     28055         769   2071           0.00047979311  0.00032901076  0.060273607    0.0499528      0.00084596551
     28086         769   2071           0.00047950035  0.00032418685  0.060273607    0.0499528      0.00079032248
     28117         769   2071           0.00047972503  0.00032634857  0.060273607    0.0499528      0.00090795359
     28148         769   2071           0.00047958565  0.00032862314  0.060273607    0.0499528      0.0007176575 
     28179         769   2071           0.00047949066  0.00032641947  0.060273607    0.0499528      0.00082033367
     28210         769   2071           0.00047956378  0.00032675427  0.060273607    0.0499528      0.00076566136
     28241         769   2071           0.00047957959  0.00032743004  0.060273607    0.0499528      0.00083070814
     28272         769   2071           0.00047951491  0.00032575333  0.060273607    0.0499528      0.00080041287
     28303         769   2071           0.00047943841  0.00032599382  0.060273607    0.0499528      0.0007459596 
     28334         769   2071           0.00047927883  0.00032424507  0.060273607    0.0499528      0.00079382691
     28365         769   2071           0.00047960128  0.00032517089  0.060273607    0.0499528      0.00094526619
     28396         769   2071           0.00047962563  0.00032637566  0.060273607    0.0499528      0.00085070461
     28427         769   2071           0.00047966122  0.00032496708  0.060273607    0.0499528      0.00090129766
     28458         769   2071           0.00047967012  0.00032438926  0.060273607    0.0499528      0.00076208588
     28489         769   2071           0.00047969895  0.00032631236  0.060273607    0.0499528      0.00084095937
     28520         769   2071           0.0004795423   0.00032854889  0.060273607    0.0499528      0.00090771753
     28551         769   2071           0.00047955127  0.00032550452  0.060273607    0.0499528      0.00075003497
     28582         769   2071           0.00047964618  0.0003270857   0.060273607    0.0499528      0.00074417296
     28613         769   2071           0.00047967248  0.00032597655  0.060273607    0.0499528      0.00078518537
     28644         769   2071           0.00047928958  0.00032634645  0.060273607    0.0499528      0.0008491491 
     28675         769   2071           0.00047937242  0.00032696933  0.060273607    0.0499528      0.00072649535
     28706         769   2071           0.00047975359  0.00032659995  0.060273607    0.0499528      0.00076461447
     28737         769   2071           0.00047967444  0.00032775528  0.060273607    0.0499528      0.00089751713
     28768         769   2071           0.00047932712  0.00032739821  0.060273607    0.0499528      0.00078505955
     28799         769   2071           0.00047950792  0.00032636619  0.060273607    0.0499528      0.00074666002
     28830         769   2071           0.00047941811  0.00032803148  0.060273607    0.0499528      0.00086370303
     28861         769   2071           0.00047952745  0.00032749997  0.060273607    0.0499528      0.00087569417
     28892         769   2071           0.00047958131  0.00032852237  0.060273607    0.0499528      0.00087482578
     28923         769   2071           0.00047965568  0.00032941002  0.060273607    0.0499528      0.00074786027
     28954         769   2071           0.00047947383  0.00032697343  0.060273607    0.0499528      0.0007726619 
     28985         769   2071           0.00047943064  0.00032763527  0.060273607    0.0499528      0.00078983275
     29016         769   2071           0.00047952686  0.00032722894  0.060273607    0.0499528      0.00074466443
     29047         769   2071           0.00047963606  0.00032635914  0.060273607    0.0499528      0.00084740727
     29078         769   2071           0.00047962963  0.00032641264  0.060273607    0.0499528      0.0008559586 
     29109         769   2071           0.00047970076  0.00032644566  0.060273607    0.0499528      0.00082407768
     29140         769   2071           0.00047961984  0.0003309607   0.060273607    0.0499528      0.00085045518
     29171         769   2071           0.00047959496  0.00032987272  0.060273607    0.0499528      0.00088209213
     29202         769   2071           0.00047941206  0.0003271486   0.060273607    0.0499528      0.00082397568
     29233         769   2071           0.00047923232  0.000326623    0.060273607    0.0499528      0.00086143738
     29264         769   2071           0.00047962359  0.00032698829  0.060273607    0.0499528      0.00087974293
     29295         769   2071           0.00047929746  0.00032525649  0.060273607    0.0499528      0.00076368361
     29326         769   2071           0.00047945244  0.00032557976  0.060273607    0.0499528      0.000895972  
     29357         769   2071           0.00047954878  0.00032853178  0.060273607    0.0499528      0.00093166012
     29388         769   2071           0.00047936863  0.00032845806  0.060273607    0.0499528      0.00079976467
     29419         769   2071           0.00047972183  0.0003259049   0.060273607    0.0499528      0.00084514518
     29450         769   2071           0.00047953998  0.0003253623   0.060273607    0.0499528      0.00086939802
     29481         769   2071           0.00047947081  0.00032651542  0.060273607    0.0499528      0.00091584695
     29512         769   2071           0.00047932747  0.00032764555  0.060273607    0.0499528      0.00083042751
     29543         769   2071           0.0004797234   0.00032804909  0.060273607    0.0499528      0.00092020901
     29574         769   2071           0.00047980455  0.00032880039  0.060273607    0.0499528      0.000828286  
     29605         769   2071           0.00047954451  0.00032716829  0.060273607    0.0499528      0.00073497113
     29636         769   2071           0.00047934936  0.00032823801  0.060273607    0.0499528      0.00074615739
     29667         769   2071           0.0004795278   0.00032819656  0.060273607    0.0499528      0.00091811767
     29698         769   2071           0.00047975924  0.00032738005  0.060273607    0.0499528      0.00077753381
     29729         769   2071           0.00047960426  0.00032482697  0.060273607    0.0499528      0.00078211867
     29760         769   2071           0.00047930399  0.00032529747  0.060273607    0.0499528      0.0008085152 
     29791         769   2071           0.00047952039  0.00032684023  0.060273607    0.0499528      0.00090642304
     29822         769   2071           0.00047953511  0.00032835258  0.060273607    0.0499528      0.00089848438
     29853         769   2071           0.00047935202  0.00032616949  0.060273607    0.0499528      0.00074965056
     29884         769   2071           0.00047972685  0.00033019545  0.060273607    0.0499528      0.00077572563
     29915         769   2071           0.00047948754  0.00032782617  0.060273607    0.0499528      0.00077765759
     29946         769   2071           0.00047956019  0.00032736386  0.060273607    0.0499528      0.0010069939 
     29977         769   2071           0.00047932158  0.00032814273  0.060273607    0.0499528      0.00071321983
     30008         769   2071           0.00047955141  0.00032613787  0.060273607    0.0499528      0.00077243985
     30039         769   2071           0.00047952409  0.00032975411  0.060273607    0.0499528      0.00086595437
     30070         769   2071           0.0004797024   0.00032683502  0.060273607    0.0499528      0.0009879968 
     30101         769   2071           0.00047956974  0.00032668016  0.060273607    0.0499528      0.00072786058
     30132         769   2071           0.0004795967   0.00032639051  0.060273607    0.0499528      0.00090196862
     30163         769   2071           0.00047972595  0.000327333    0.060273607    0.0499528      0.00088429031
     30194         769   2071           0.00047951121  0.00032535853  0.060273607    0.0499528      0.00088950891
     30225         769   2071           0.00047959275  0.00032782751  0.060273607    0.0499528      0.00089124944
     30256         769   2071           0.0004795771   0.00032616175  0.060273607    0.0499528      0.00071899321
     30287         769   2071           0.00047917547  0.000328221    0.060273607    0.0499528      0.00081997265
     30318         769   2071           0.00047946029  0.00032605165  0.060273607    0.0499528      0.00085102088
     30349         769   2071           0.0004792905   0.00032637642  0.060273607    0.0499528      0.00080935557
     30380         769   2071           0.00047923262  0.00032765604  0.060273607    0.0499528      0.00084597398
     30411         769   2071           0.00047943565  0.0003248788   0.060273607    0.0499528      0.00080651508
     30442         769   2071           0.00047957547  0.00032684707  0.060273607    0.0499528      0.00079840042
     30473         769   2071           0.00047972641  0.00032856989  0.060273607    0.0499528      0.0007899346 
     30504         769   2071           0.00047954297  0.00032829225  0.060273607    0.0499528      0.00090091187
     30535         769   2071           0.00047926299  0.00032774387  0.060273607    0.0499528      0.0009124303 
     30566         769   2071           0.00047954612  0.00032591632  0.060273607    0.0499528      0.00090152477
     30597         769   2071           0.00047944254  0.00032482891  0.060273607    0.0499528      0.00088565878
     30628         769   2071           0.00047974364  0.00032492342  0.060273607    0.0499528      0.00080575876
     30659         769   2071           0.00047956952  0.00032700578  0.060273607    0.0499528      0.0007775873 
     30690         769   2071           0.00047946633  0.00032692302  0.060273607    0.0499528      0.00076725364
     30721         769   2071           0.00047946383  0.00032775076  0.060273607    0.0499528      0.00091101571
     30752         769   2071           0.00047946663  0.00032582554  0.060273607    0.0499528      0.00085975641
     30783         769   2071           0.00047970358  0.00032722428  0.060273607    0.0499528      0.000933994  
     30814         769   2071           0.00047960376  0.00032869814  0.060273607    0.0499528      0.0008896625 
     30845         769   2071           0.00047967648  0.00032455443  0.060273607    0.0499528      0.00082047404
     30876         769   2071           0.00047942191  0.00032891003  0.060273607    0.0499528      0.00075579406
     30907         769   2071           0.00047942493  0.00032935555  0.060273607    0.0499528      0.000761697  
     30938         769   2071           0.00047958572  0.00032784784  0.060273607    0.0499528      0.00077418613
     30969         769   2071           0.00047975655  0.00032699875  0.060273607    0.0499528      0.00084201622
     31000         769   2071           0.0004795901   0.00032784242  0.060273607    0.0499528      0.00076191802
     31031         769   2071           0.00047946626  0.00032853498  0.060273607    0.0499528      0.0007886378 
     31062         769   2071           0.00047932331  0.00032865413  0.060273607    0.0499528      0.00079881541
     31093         769   2071           0.00047949616  0.00032399658  0.060273607    0.0499528      0.00083194693
     31124         769   2071           0.00047955834  0.00032799051  0.060273607    0.0499528      0.00078740393
     31155         769   2071           0.0004797555   0.00032587948  0.060273607    0.0499528      0.00079741206
     31186         769   2071           0.00047967522  0.00032776027  0.060273607    0.0499528      0.00093435103
     31217         769   2071           0.00047952967  0.00032623244  0.060273607    0.0499528      0.00079141687
     31248         769   2071           0.00047945613  0.00032868678  0.060273607    0.0499528      0.00083298165
     31279         769   2071           0.00047942774  0.00032572866  0.060273607    0.0499528      0.00092828456
     31310         769   2071           0.00047943051  0.00033057925  0.060273607    0.0499528      0.00086391801
     31341         769   2071           0.00047941245  0.0003281787   0.060273607    0.0499528      0.00083728173
     31372         769   2071           0.00047931476  0.00032838581  0.060273607    0.0499528      0.00080187663
     31403         769   2071           0.00047974504  0.0003283606   0.060273607    0.0499528      0.00072395131
     31434         769   2071           0.000479743    0.00032498427  0.060273607    0.0499528      0.00079939248
     31465         769   2071           0.00047951435  0.00032627068  0.060273607    0.0499528      0.00074158848
     31496         769   2071           0.00047942184  0.0003255606   0.060273607    0.0499528      0.00087458526
     31527         769   2071           0.00047951664  0.00032750941  0.060273607    0.0499528      0.00075540744
     31558         769   2071           0.00047923404  0.0003294517   0.060273607    0.0499528      0.00087351106
     31589         769   2071           0.00047938529  0.00032561213  0.060273607    0.0499528      0.00083135845
     31620         769   2071           0.00047959294  0.00032709887  0.060273607    0.0499528      0.00085814303
     31651         769   2071           0.00047965995  0.00032874696  0.060273607    0.0499528      0.00087805743
     31682         769   2071           0.00047990484  0.00032737875  0.060273607    0.0499528      0.00086766706
     31713         769   2071           0.00047971985  0.00032649854  0.060273607    0.0499528      0.00082236661
     31744         769   2071           0.00047956847  0.00032725633  0.060273607    0.0499528      0.0007301368 
     31775         769   2071           0.00047960029  0.0003255893   0.060273607    0.0499528      0.00089142539
     31806         769   2071           0.00047950801  0.00032945463  0.060273607    0.0499528      0.00063408376
     31837         769   2071           0.00047970558  0.00032622631  0.060273607    0.0499528      0.0008449827 
     31868         769   2071           0.00047942563  0.00032564024  0.060273607    0.0499528      0.00090775969
     31899         769   2071           0.00047946313  0.00032551195  0.060273607    0.0499528      0.00078221493
     31930         769   2071           0.000479333    0.00032780867  0.060273607    0.0499528      0.00084525391
     31961         769   2071           0.00047960701  0.00032607256  0.060273607    0.0499528      0.00065009808
     31992         769   2071           0.00047946091  0.00032874638  0.060273607    0.0499528      0.00077706564
     32023         769   2071           0.00047936962  0.00032410114  0.060273607    0.0499528      0.00086428753
     32054         769   2071           0.00047933702  0.0003268924   0.060273607    0.0499528      0.00076248784
     32085         769   2071           0.00047971476  0.00032761594  0.060273607    0.0499528      0.00073120613
     32116         769   2071           0.00047946836  0.00032586136  0.060273607    0.0499528      0.00089789539
     32147         769   2071           0.00047954723  0.00032678606  0.060273607    0.0499528      0.0008800138 
     32178         769   2071           0.00047937414  0.0003267152   0.060273607    0.0499528      0.00087473771
     32209         769   2071           0.00047960149  0.00032905327  0.060273607    0.0499528      0.000889643  
     32240         769   2071           0.00047955309  0.00032787777  0.060273607    0.0499528      0.0008603901 
     32271         769   2071           0.00047947833  0.00032644826  0.060273607    0.0499528      0.00076168486
     32302         769   2071           0.00047954925  0.00032837586  0.060273607    0.0499528      0.00075590305
     32333         769   2071           0.00047956026  0.00033054336  0.060273607    0.0499528      0.00085826143
     32364         769   2071           0.00047946396  0.00032767217  0.060273607    0.0499528      0.0007931972 
     32395         769   2071           0.00047928963  0.00032703771  0.060273607    0.0499528      0.00072475593
     32426         769   2071           0.00047954869  0.00032594933  0.060273607    0.0499528      0.00079634748
     32457         769   2071           0.00047950778  0.00032711608  0.060273607    0.0499528      0.00094491524
     32488         769   2071           0.000479578    0.00032379098  0.060273607    0.0499528      0.00073277971
     32519         769   2071           0.00047960385  0.00032843041  0.060273607    0.0499528      0.00080607913
     32550         769   2071           0.00047934468  0.00032678101  0.060273607    0.0499528      0.00081727505
     32581         769   2071           0.00047930695  0.00032897303  0.060273607    0.0499528      0.00084356366
     32612         769   2071           0.00047950268  0.0003268193   0.060273607    0.0499528      0.00096042378
     32643         769   2071           0.00047955945  0.00032967845  0.060273607    0.0499528      0.00087373384
     32674         769   2071           0.00047938941  0.00032599327  0.060273607    0.0499528      0.00074579418
     32705         769   2071           0.00047953173  0.00032636687  0.060273607    0.0499528      0.00077133179
     32736         769   2071           0.00047940155  0.00032654291  0.060273607    0.0499528      0.00080863297
     32767         769   2071           0.00047945326  0.00032567977  0.060273607    0.0499528      0.00095984176
     32798         769   2071           0.00047928439  0.0003281534   0.060273607    0.0499528      0.0008843494 
     32829         769   2071           0.0004796083   0.00032857936  0.060273607    0.0499528      0.00082414629
     32860         769   2071           0.00047968362  0.0003248991   0.060273607    0.0499528      0.00063603145
     32891         769   2071           0.00047930137  0.00032786821  0.060273607    0.0499528      0.00088770255
     32922         769   2071           0.00047962848  0.0003266908   0.060273607    0.0499528      0.00082702194
     32953         769   2071           0.00047941588  0.00032817961  0.060273607    0.0499528      0.00087694806
     32984         769   2071           0.00047938433  0.00032651575  0.060273607    0.0499528      0.0008742402 
     33015         769   2071           0.00047980448  0.0003264976   0.060273607    0.0499528      0.00074810637
     33046         769   2071           0.00047978876  0.00032705962  0.060273607    0.0499528      0.00089779235
     33077         769   2071           0.00047939846  0.0003280528   0.060273607    0.0499528      0.00085985875
     33108         769   2071           0.0004793241   0.0003239095   0.060273607    0.0499528      0.00073377309
     33139         769   2071           0.00047931229  0.00032892549  0.060273607    0.0499528      0.00075839934
     33170         769   2071           0.00047932714  0.00032888414  0.060273607    0.0499528      0.00087225657
     33201         769   2071           0.00047965868  0.00032587639  0.060273607    0.0499528      0.00092050839
     33232         769   2071           0.00047947809  0.00032991454  0.060273607    0.0499528      0.00084392826
     33263         769   2071           0.00047962942  0.00032730311  0.060273607    0.0499528      0.00077784017
     33294         769   2071           0.00047950124  0.00032929914  0.060273607    0.0499528      0.00091132192
     33325         769   2071           0.00047938459  0.00032753361  0.060273607    0.0499528      0.00086289413
     33356         769   2071           0.00047958319  0.00032896584  0.060273607    0.0499528      0.00084995798
     33387         769   2071           0.00047949653  0.00032919672  0.060273607    0.0499528      0.00070007909
     33418         769   2071           0.00047966008  0.00032834042  0.060273607    0.0499528      0.00075194736
     33449         769   2071           0.00047932465  0.0003245822   0.060273607    0.0499528      0.00082632426
     33480         769   2071           0.00047936265  0.00032739616  0.060273607    0.0499528      0.00085402533
     33511         769   2071           0.00047947099  0.00032881498  0.060273607    0.0499528      0.00096519462
     33542         769   2071           0.0004795202   0.00032504884  0.060273607    0.0499528      0.00075381699
     33573         769   2071           0.00047959189  0.00032776381  0.060273607    0.0499528      0.00084301222
     33604         769   2071           0.00047931777  0.00032815652  0.060273607    0.0499528      0.00077642791
     33635         769   2071           0.00047943181  0.00032611069  0.060273607    0.0499528      0.00083742855
     33666         769   2071           0.00047927413  0.00032829302  0.060273607    0.0499528      0.00071517279
     33697         769   2071           0.00047963061  0.00032958202  0.060273607    0.0499528      0.00086565417
     33728         769   2071           0.0004796525   0.000328517    0.060273607    0.0499528      0.0010916321 
     33759         769   2071           0.00047969653  0.00032872182  0.060273607    0.0499528      0.00075484939
     33790         769   2071           0.00047950723  0.00032809219  0.060273607    0.0499528      0.00077057318
     33821         769   2071           0.00047946563  0.00032778834  0.060273607    0.0499528      0.00079011877
     33852         769   2071           0.00047945255  0.00032716372  0.060273607    0.0499528      0.00077501955
     33883         769   2071           0.00047937541  0.00032767653  0.060273607    0.0499528      0.00089204787
     33914         769   2071           0.00047982588  0.00032615221  0.060273607    0.0499528      0.00091061245
     33945         769   2071           0.00047935227  0.00032662072  0.060273607    0.0499528      0.00067773211
     33976         769   2071           0.00047971649  0.00032857032  0.060273607    0.0499528      0.0008482138 
     34007         769   2071           0.00047957104  0.00032748461  0.060273607    0.0499528      0.00093519122
     34038         769   2071           0.00047934401  0.0003273201   0.060273607    0.0499528      0.00087427474
     34069         769   2071           0.00047945212  0.00032363574  0.060273607    0.0499528      0.00084208862
     34100         769   2071           0.00047939878  0.00032601093  0.060273607    0.0499528      0.0007753233 
     34131         769   2071           0.00047954532  0.00032803151  0.060273607    0.0499528      0.00088425532
     34162         769   2071           0.00047939256  0.00032571625  0.060273607    0.0499528      0.00079867166
     34193         769   2071           0.00047932035  0.00032582115  0.060273607    0.0499528      0.00076084817
     34224         769   2071           0.00047943131  0.00032684108  0.060273607    0.0499528      0.00069704786
     34255         769   2071           0.00047962132  0.00032716751  0.060273607    0.0499528      0.00071785387
     34286         769   2071           0.00047953824  0.00032500746  0.060273607    0.0499528      0.00079446379
     34317         769   2071           0.00047970501  0.00032570215  0.060273607    0.0499528      0.00086630453
     34348         769   2071           0.0004793801   0.00032885963  0.060273607    0.0499528      0.00089717384
     34379         769   2071           0.00047960049  0.0003257425   0.060273607    0.0499528      0.00088500441
     34410         769   2071           0.00047945331  0.00032642933  0.060273607    0.0499528      0.00076734421
     34441         769   2071           0.00047952704  0.000327462    0.060273607    0.0499528      0.0008152453 
     34472         769   2071           0.00047959243  0.00032834675  0.060273607    0.0499528      0.00082327463
     34503         769   2071           0.00047955033  0.00032537184  0.060273607    0.0499528      0.00089539927
     34534         769   2071           0.00047947279  0.00032588228  0.060273607    0.0499528      0.0008407255 
     34565         769   2071           0.00047973717  0.00032793784  0.060273607    0.0499528      0.00069052247
     34596         769   2071           0.00047961864  0.00032737084  0.060273607    0.0499528      0.00090930504
     34627         769   2071           0.0004794093   0.00032763655  0.060273607    0.0499528      0.00089338011
     34658         769   2071           0.00047962766  0.00032588719  0.060273607    0.0499528      0.00084235043
     34689         769   2071           0.00047940242  0.00032775274  0.060273607    0.0499528      0.00086647498
     34720         769   2071           0.00047950332  0.00032463796  0.060273607    0.0499528      0.00086801451
     34751         769   2071           0.00047950743  0.00032814988  0.060273607    0.0499528      0.00083824945
     34782         769   2071           0.00047931019  0.0003264847   0.060273607    0.0499528      0.00084492123
     34813         769   2071           0.00047936343  0.00032777105  0.060273607    0.0499528      0.00084456422
     34844         769   2071           0.00047931641  0.00032954025  0.060273607    0.0499528      0.00083515006
     34875         769   2071           0.000479668    0.00032728669  0.060273607    0.0499528      0.00066456547
     34906         769   2071           0.00047954273  0.00032731626  0.060273607    0.0499528      0.00085540998
     34937         769   2071           0.00047947066  0.00032862746  0.060273607    0.0499528      0.00082866906
     34968         769   2071           0.00047944311  0.00032660503  0.060273607    0.0499528      0.00081177728
     34999         769   2071           0.00047973937  0.00032596147  0.060273607    0.0499528      0.00082967634
     35030         769   2071           0.00047951724  0.00032520842  0.060273607    0.0499528      0.00080000597
     35061         769   2071           0.00047950888  0.00032604151  0.060273607    0.0499528      0.00094173712
     35092         769   2071           0.00047939792  0.00032824965  0.060273607    0.0499528      0.0006567405 
     35123         769   2071           0.00047908178  0.00032632306  0.060273607    0.0499528      0.00082428071
     35154         769   2071           0.00047949303  0.00032742346  0.060273607    0.0499528      0.00078461227
     35185         769   2071           0.00047935331  0.00032878048  0.060273607    0.0499528      0.00078995232
     35216         769   2071           0.00047963319  0.00032755132  0.060273607    0.0499528      0.00075606653
     35247         769   2071           0.00047956017  0.00032791758  0.060273607    0.0499528      0.00068147925
     35278         769   2071           0.00047979461  0.00032709735  0.060273607    0.0499528      0.00077049326
     35309         769   2071           0.00047949003  0.0003282032   0.060273607    0.0499528      0.00090980804
     35340         769   2071           0.0004794122   0.00032955242  0.060273607    0.0499528      0.00075558721
     35371         769   2071           0.0004795265   0.00032722513  0.060273607    0.0499528      0.00085868593
     35402         769   2071           0.00047982671  0.00032734481  0.060273607    0.0499528      0.0008188133 
     35433         769   2071           0.00047960316  0.00032645731  0.060273607    0.0499528      0.00084048112
     35464         769   2071           0.00047964589  0.00032878868  0.060273607    0.0499528      0.00071009415
     35495         769   2071           0.00047942346  0.00032725712  0.060273607    0.0499528      0.00082702696
     35526         769   2071           0.00047973925  0.00032795658  0.060273607    0.0499528      0.00086192662
     35557         769   2071           0.00047964876  0.00032531838  0.060273607    0.0499528      0.0008795661 
     35588         769   2071           0.00047973125  0.00032621283  0.060273607    0.0499528      0.00083096511
     35619         769   2071           0.00047953378  0.00032818405  0.060273607    0.0499528      0.0008634895 
     35650         769   2071           0.00047954855  0.00032804878  0.060273607    0.0499528      0.00075719705
     35681         769   2071           0.0004796302   0.00032645529  0.060273607    0.0499528      0.00080989359
     35712         769   2071           0.00047937451  0.00032587033  0.060273607    0.0499528      0.00076940581
     35743         769   2071           0.00047943849  0.00032650862  0.060273607    0.0499528      0.00085197192
     35774         769   2071           0.00047928386  0.00032910254  0.060273607    0.0499528      0.00094692458
     35805         769   2071           0.000479257    0.00032527802  0.060273607    0.0499528      0.00084663879
     35836         769   2071           0.00047954036  0.00032900655  0.060273607    0.0499528      0.00095706904
     35867         769   2071           0.0004794195   0.0003274456   0.060273607    0.0499528      0.00082704029
     35898         769   2071           0.00047944682  0.00032677909  0.060273607    0.0499528      0.00078492945
     35929         769   2071           0.00047942936  0.00032840106  0.060273607    0.0499528      0.00087069135
     35960         769   2071           0.0004795618   0.00032594395  0.060273607    0.0499528      0.00071868078
     35991         769   2071           0.00047954276  0.00032676244  0.060273607    0.0499528      0.00069736926
     36022         769   2071           0.00047951503  0.00032458879  0.060273607    0.0499528      0.00082399781
     36053         769   2071           0.00047957968  0.00032915948  0.060273607    0.0499528      0.0007492309 
     36084         769   2071           0.00047950693  0.00032638771  0.060273607    0.0499528      0.00084873027
     36115         769   2071           0.00047960695  0.00032783658  0.060273607    0.0499528      0.0008879239 
     36146         769   2071           0.00047940177  0.0003269344   0.060273607    0.0499528      0.00077781607
     36177         769   2071           0.00047951898  0.0003286052   0.060273607    0.0499528      0.0007592472 
     36208         769   2071           0.00047952818  0.00032785856  0.060273607    0.0499528      0.00081241811
     36239         769   2071           0.0004796593   0.00032466256  0.060273607    0.0499528      0.00084095528
     36270         769   2071           0.00047960599  0.00032484863  0.060273607    0.0499528      0.00085493813
     36301         769   2071           0.00047950004  0.00032780387  0.060273607    0.0499528      0.00088181215
     36332         769   2071           0.00047933702  0.00032604897  0.060273607    0.0499528      0.00080522458
     36363         769   2071           0.00047971138  0.00032744252  0.060273607    0.0499528      0.00086772057
     36394         769   2071           0.0004795241   0.00032706257  0.060273607    0.0499528      0.00083518039
     36425         769   2071           0.0004795602   0.00032852305  0.060273607    0.0499528      0.00086941541
     36456         769   2071           0.00047959968  0.00032552217  0.060273607    0.0499528      0.00083338759
     36487         769   2071           0.00047920577  0.00032580819  0.060273607    0.0499528      0.00088211095
     36518         769   2071           0.00047956598  0.00032721211  0.060273607    0.0499528      0.00083464095
     36549         769   2071           0.00047930605  0.00032841009  0.060273607    0.0499528      0.00082599947
     36580         769   2071           0.00047932867  0.00032758449  0.060273607    0.0499528      0.00085463464
     36611         769   2071           0.00047962112  0.00032753242  0.060273607    0.0499528      0.00077404319
     36642         769   2071           0.00047957959  0.00032758372  0.060273607    0.0499528      0.00098629077
     36673         769   2071           0.0004796781   0.00032562585  0.060273607    0.0499528      0.00087453586
     36704         769   2071           0.00047962839  0.00032683565  0.060273607    0.0499528      0.00091696079
     36735         769   2071           0.00047973716  0.00032896652  0.060273607    0.0499528      0.00087239311
     36766         769   2071           0.00047969564  0.00032550562  0.060273607    0.0499528      0.00085715025
     36797         769   2071           0.0004798279   0.00032518304  0.060273607    0.0499528      0.00077821509
     36828         769   2071           0.00047923255  0.0003277204   0.060273607    0.0499528      0.00086804735
     36859         769   2071           0.00047955242  0.00032549649  0.060273607    0.0499528      0.00096683132
     36890         769   2071           0.0004793682   0.00033002946  0.060273607    0.0499528      0.00087627383
     36921         769   2071           0.00047900619  0.00032809224  0.060273607    0.0499528      0.00075862146
     36952         769   2071           0.00047953768  0.00032685488  0.060273607    0.0499528      0.00079957794
     36983         769   2071           0.00047967412  0.00032735254  0.060273607    0.0499528      0.00088451983
     37014         769   2071           0.00047982271  0.00032971511  0.060273607    0.0499528      0.00075200487
     37045         769   2071           0.00047940706  0.00032528832  0.060273607    0.0499528      0.00088063745
     37076         769   2071           0.00047935991  0.00032762528  0.060273607    0.0499528      0.00087915116
     37107         769   2071           0.00047935841  0.00032800688  0.060273607    0.0499528      0.00086181753
     37138         769   2071           0.00047931687  0.00032744824  0.060273607    0.0499528      0.00092328625
     37169         769   2071           0.00047993592  0.00032507573  0.060273607    0.0499528      0.00075295642
     37200         769   2071           0.00047958998  0.00032621928  0.060273607    0.0499528      0.00084363689
     37231         769   2071           0.00047924601  0.00032572053  0.060273607    0.0499528      0.00088871541
     37262         769   2071           0.00047937726  0.00032494286  0.060273607    0.0499528      0.00093176152
     37293         769   2071           0.00047960479  0.00032584053  0.060273607    0.0499528      0.00077763585
     37324         769   2071           0.00047967793  0.00032600033  0.060273607    0.0499528      0.00072345649
     37355         769   2071           0.00047960383  0.00032688428  0.060273607    0.0499528      0.00084306721
     37386         769   2071           0.00047948639  0.00032646925  0.060273607    0.0499528      0.00088028568
     37417         769   2071           0.00047945082  0.00032714099  0.060273607    0.0499528      0.0008815687 
     37448         769   2071           0.00047932796  0.00032225616  0.060273607    0.0499528      0.00085797011
     37479         769   2071           0.0004793735   0.00032627126  0.060273607    0.0499528      0.00088230132
     37510         769   2071           0.00047937532  0.00032696541  0.060273607    0.0499528      0.00086667079
     37541         769   2071           0.0004797138   0.00032836716  0.060273607    0.0499528      0.00088104478
     37572         769   2071           0.00047961194  0.0003276631   0.060273607    0.0499528      0.0008657878 
     37603         769   2071           0.00047946607  0.0003260592   0.060273607    0.0499528      0.00086220066
     37634         769   2071           0.00047946414  0.00032660871  0.060273607    0.0499528      0.00086266001
     37665         769   2071           0.00047965036  0.00032867584  0.060273607    0.0499528      0.00085615675
     37696         769   2071           0.00047962088  0.00032701213  0.060273607    0.0499528      0.00083119065
     37727         769   2071           0.00047940293  0.00032501811  0.060273607    0.0499528      0.00084054306
     37758         769   2071           0.00047948748  0.00032866595  0.060273607    0.0499528      0.00092443144
     37789         769   2071           0.00047949481  0.0003275431   0.060273607    0.0499528      0.00091694824
     37820         769   2071           0.00047959763  0.00032551646  0.060273607    0.0499528      0.00086540755
     37851         769   2071           0.000479384    0.0003281583   0.060273607    0.0499528      0.00081636126
     37882         769   2071           0.00047947244  0.00032875632  0.060273607    0.0499528      0.00087513526
     37913         769   2071           0.00047964057  0.00032807509  0.060273607    0.0499528      0.00083371263
     37944         769   2071           0.00047974506  0.00032635162  0.060273607    0.0499528      0.00080365249
     37975         769   2071           0.00047956679  0.00032728623  0.060273607    0.0499528      0.00072642726
     38006         769   2071           0.00047978099  0.00032249277  0.060273607    0.0499528      0.00072219789
     38037         769   2071           0.00047954318  0.00032716362  0.060273607    0.0499528      0.00098375918
     38068         769   2071           0.00047978558  0.00032601679  0.060273607    0.0499528      0.00085885051
     38099         769   2071           0.00047961427  0.00032566309  0.060273607    0.0499528      0.00090465099
     38130         769   2071           0.00047945311  0.00032894249  0.060273607    0.0499528      0.00081039742
     38161         769   2071           0.00047938705  0.00032773991  0.060273607    0.0499528      0.00070909124
     38192         769   2071           0.00047954149  0.0003265237   0.060273607    0.0499528      0.00074436261
     38223         769   2071           0.00047970101  0.00032489105  0.060273607    0.0499528      0.00075010569
     38254         769   2071           0.00047958542  0.00032864493  0.060273607    0.0499528      0.00093426796
     38285         769   2071           0.00047924913  0.00032698108  0.060273607    0.0499528      0.00074534306
     38316         769   2071           0.00047949208  0.00032970638  0.060273607    0.0499528      0.00096859561
     38347         769   2071           0.00047943501  0.00032694448  0.060273607    0.0499528      0.00084915889
     38378         769   2071           0.00047915443  0.00032474118  0.060273607    0.0499528      0.00084829454
     38409         769   2071           0.00047949662  0.00032851983  0.060273607    0.0499528      0.00080498874
     38440         769   2071           0.00047933378  0.00032577999  0.060273607    0.0499528      0.00083969786
     38471         769   2071           0.00047951696  0.00032756814  0.060273607    0.0499528      0.00084899565
     38502         769   2071           0.00047966847  0.0003254906   0.060273607    0.0499528      0.00077849458
     38533         769   2071           0.00047966061  0.00032734641  0.060273607    0.0499528      0.00087043328
     38564         769   2071           0.00047947882  0.00032402493  0.060273607    0.0499528      0.00076359147
     38595         769   2071           0.00047943527  0.00032791455  0.060273607    0.0499528      0.00095599066
     38626         769   2071           0.00047966972  0.00032299572  0.060273607    0.0499528      0.00078250078
     38657         769   2071           0.00047971845  0.00032608251  0.060273607    0.0499528      0.00074263867
     38688         769   2071           0.0004792883   0.00032886068  0.060273607    0.0499528      0.00082243426
     38719         769   2071           0.00047958908  0.00032661716  0.060273607    0.0499528      0.00075132124
     38750         769   2071           0.00047946724  0.00032510996  0.060273607    0.0499528      0.0008656181 
     38781         769   2071           0.00047963853  0.00032552522  0.060273607    0.0499528      0.0008165671 
     38812         769   2071           0.00047957496  0.0003272208   0.060273607    0.0499528      0.00074343449
     38843         769   2071           0.00047974964  0.00032607832  0.060273607    0.0499528      0.0007884855 
     38874         769   2071           0.00047950891  0.00032372728  0.060273607    0.0499528      0.00082236914
     38905         769   2071           0.00047952092  0.0003275223   0.060273607    0.0499528      0.0010849033 
     38936         769   2071           0.00047930781  0.00032719357  0.060273607    0.0499528      0.000881892  
     38967         769   2071           0.00047967886  0.00032396374  0.060273607    0.0499528      0.00084643728
     38998         769   2071           0.0004795876   0.0003290619   0.060273607    0.0499528      0.00083358173
     39029         769   2071           0.00047926151  0.00032485017  0.060273607    0.0499528      0.00079816572
     39060         769   2071           0.00047938404  0.00033050508  0.060273607    0.0499528      0.00085138627
     39091         769   2071           0.00047969415  0.00032991964  0.060273607    0.0499528      0.00085761256
     39122         769   2071           0.00047961889  0.00032650776  0.060273607    0.0499528      0.00072627594
     39153         769   2071           0.00047947737  0.00032822714  0.060273607    0.0499528      0.00086313984
     39184         769   2071           0.00047959157  0.00032717388  0.060273607    0.0499528      0.00086209994
     39215         769   2071           0.00047926836  0.00032658272  0.060273607    0.0499528      0.00082818908
     39246         769   2071           0.00047945508  0.00032855992  0.060273607    0.0499528      0.00096064265
     39277         769   2071           0.00047957028  0.00032709209  0.060273607    0.0499528      0.00081658084
     39308         769   2071           0.00047992967  0.00032674995  0.060273607    0.0499528      0.0008842702 
     39339         769   2071           0.00047938615  0.00032874143  0.060273607    0.0499528      0.00075250576
     39370         769   2071           0.0004794264   0.00032786853  0.060273607    0.0499528      0.00092432861
     39401         769   2071           0.00047975993  0.00032684175  0.060273607    0.0499528      0.00089630709
     39432         769   2071           0.00047935353  0.00032768133  0.060273607    0.0499528      0.00084256844
     39463         769   2071           0.00047950577  0.00032605449  0.060273607    0.0499528      0.00081474487
     39494         769   2071           0.00047940471  0.00032734631  0.060273607    0.0499528      0.00093401393
     39525         769   2071           0.00047938267  0.00032695658  0.060273607    0.0499528      0.00082921192
     39556         769   2071           0.00047953321  0.00032649447  0.060273607    0.0499528      0.00083510257
     39587         769   2071           0.00047924951  0.00032793811  0.060273607    0.0499528      0.00075052156
     39618         769   2071           0.0004799275   0.00032493685  0.060273607    0.0499528      0.00073629906
     39649         769   2071           0.00047973234  0.00032786217  0.060273607    0.0499528      0.0010121822 
     39680         769   2071           0.00047959114  0.00032659517  0.060273607    0.0499528      0.00083425835
     39711         769   2071           0.00047956408  0.0003253062   0.060273607    0.0499528      0.00082896945
     39742         769   2071           0.00047977224  0.00032357885  0.060273607    0.0499528      0.00064666299
     39773         769   2071           0.00047962788  0.00032711955  0.060273607    0.0499528      0.00089917204
     39804         769   2071           0.0004794764   0.00032608255  0.060273607    0.0499528      0.00077568561
     39835         769   2071           0.00047969296  0.0003284269   0.060273607    0.0499528      0.00076035216
     39866         769   2071           0.00047948852  0.00032609532  0.060273607    0.0499528      0.00091084146
     39897         769   2071           0.00047973511  0.00032741615  0.060273607    0.0499528      0.00072252781
     39928         769   2071           0.00047962978  0.00032724275  0.060273607    0.0499528      0.0007684102 
     39959         769   2071           0.00047938477  0.00032723536  0.060273607    0.0499528      0.00071593431
     39990         769   2071           0.00047926445  0.00032587057  0.060273607    0.0499528      0.0007639093 
     40021         769   2071           0.00047955538  0.00032761484  0.060273607    0.0499528      0.0008421277 
     40052         769   2071           0.00047944299  0.00032948027  0.060273607    0.0499528      0.00084112438
     40083         769   2071           0.00047974782  0.0003268772   0.060273607    0.0499528      0.00076024116
     40114         769   2071           0.00047919668  0.00032797238  0.060273607    0.0499528      0.00083641125
     40145         769   2071           0.00047964067  0.00032845578  0.060273607    0.0499528      0.00084159724
     40176         769   2071           0.00047967894  0.00032533066  0.060273607    0.0499528      0.00073680617
     40207         769   2071           0.00047925935  0.00032584656  0.060273607    0.0499528      0.00084226657
     40238         769   2071           0.00047958388  0.00032582736  0.060273607    0.0499528      0.00074156463
     40269         769   2071           0.00047936786  0.00032998042  0.060273607    0.0499528      0.00087478026
     40300         769   2071           0.00047994733  0.00032386773  0.060273607    0.0499528      0.0008555609 
     40331         769   2071           0.00047953076  0.00032820391  0.060273607    0.0499528      0.00085675727
     40362         769   2071           0.00047979082  0.00032523774  0.060273607    0.0499528      0.00072658942
     40393         769   2071           0.00047978987  0.00032615924  0.060273607    0.0499528      0.00085147271
     40424         769   2071           0.00047970852  0.00032652329  0.060273607    0.0499528      0.00072589472
     40455         769   2071           0.0004794827   0.00032838672  0.060273607    0.0499528      0.00076310478
     40486         769   2071           0.00047929279  0.00032598331  0.060273607    0.0499528      0.00087094385
     40517         769   2071           0.00047976158  0.00032596616  0.060273607    0.0499528      0.00078552039
     40548         769   2071           0.00047935525  0.00032672389  0.060273607    0.0499528      0.00082676053
     40579         769   2071           0.00047923401  0.00032726262  0.060273607    0.0499528      0.0007775308 
     40610         769   2071           0.00047926172  0.00032838057  0.060273607    0.0499528      0.00079551271
     40641         769   2071           0.00047932563  0.00032649216  0.060273607    0.0499528      0.00075672215
     40672         769   2071           0.00047975368  0.00032822053  0.060273607    0.0499528      0.00079413512
     40703         769   2071           0.0004795333   0.00032778246  0.060273607    0.0499528      0.0010047728 
     40734         769   2071           0.00047954207  0.00032789341  0.060273607    0.0499528      0.00084187428
     40765         769   2071           0.00047979153  0.00032712956  0.060273607    0.0499528      0.00079677106
     40796         769   2071           0.00047914892  0.00032748486  0.060273607    0.0499528      0.00066514919
     40827         769   2071           0.00047948291  0.00032696911  0.060273607    0.0499528      0.00085067811
     40858         769   2071           0.00047949497  0.00032437849  0.060273607    0.0499528      0.00078163202
     40889         769   2071           0.00047942894  0.00032581949  0.060273607    0.0499528      0.00077304356
     40920         769   2071           0.00047964068  0.00032710856  0.060273607    0.0499528      0.00089398713
     40951         769   2071           0.00047953679  0.0003240595   0.060273607    0.0499528      0.00076235057
     40982         769   2071           0.0004797331   0.00032888235  0.060273607    0.0499528      0.00083621172
     41013         769   2071           0.00047950249  0.00032723808  0.060273607    0.0499528      0.00088586145
     41044         769   2071           0.00047984233  0.00032965089  0.060273607    0.0499528      0.0007615736 
     41075         769   2071           0.00047982894  0.00032789376  0.060273607    0.0499528      0.00099022397
     41106         769   2071           0.00047952937  0.00032680547  0.060273607    0.0499528      0.00093487532
     41137         769   2071           0.00047967842  0.00032658398  0.060273607    0.0499528      0.00083467098
     41168         769   2071           0.00047948362  0.00032840349  0.060273607    0.0499528      0.00079658393
     41199         769   2071           0.00047925075  0.00032794412  0.060273607    0.0499528      0.00094736763
     41230         769   2071           0.00047927434  0.00032656879  0.060273607    0.0499528      0.0008638662 
     41261         769   2071           0.00047986772  0.00032720932  0.060273607    0.0499528      0.00084863593
     41292         769   2071           0.00047947037  0.00032731673  0.060273607    0.0499528      0.0008666338 
     41323         769   2071           0.00047928993  0.00032524038  0.060273607    0.0499528      0.00084646838
     41354         769   2071           0.00047977359  0.00032747887  0.060273607    0.0499528      0.0008050079 
     41385         769   2071           0.00047964228  0.00032735823  0.060273607    0.0499528      0.001009133  
     41416         769   2071           0.00047943398  0.00032752848  0.060273607    0.0499528      0.00094695688
     41447         769   2071           0.00047958473  0.00032699401  0.060273607    0.0499528      0.00089070992
     41478         769   2071           0.00047962358  0.00032828698  0.060273607    0.0499528      0.00094744938
     41509         769   2071           0.00047929974  0.00032913017  0.060273607    0.0499528      0.0008207862 
     41540         769   2071           0.00047940186  0.00032659077  0.060273607    0.0499528      0.00082667245
     41571         769   2071           0.00047960561  0.00032638865  0.060273607    0.0499528      0.00078098203
     41602         769   2071           0.00047931878  0.00032833224  0.060273607    0.0499528      0.00080599783
     41633         769   2071           0.00047940582  0.00032685806  0.060273607    0.0499528      0.00078590041
     41664         769   2071           0.00047950324  0.00032698288  0.060273607    0.0499528      0.00089955058
     41695         769   2071           0.00047952009  0.00032574712  0.060273607    0.0499528      0.000883539  
     41726         769   2071           0.00047942581  0.00032825798  0.060273607    0.0499528      0.00075407038
     41757         769   2071           0.00047968743  0.00032771205  0.060273607    0.0499528      0.00070643109
     41788         769   2071           0.00047924136  0.0003258653   0.060273607    0.0499528      0.00088933721
     41819         769   2071           0.00047938326  0.00032750574  0.060273607    0.0499528      0.00087902829
     41850         769   2071           0.00047961114  0.00032627635  0.060273607    0.0499528      0.00073175388
     41881         769   2071           0.00047975334  0.00032782327  0.060273607    0.0499528      0.00077641145
     41912         769   2071           0.00047966044  0.00032641765  0.060273607    0.0499528      0.00078661602
     41943         769   2071           0.00047959427  0.00032647894  0.060273607    0.0499528      0.00089234417
     41974         769   2071           0.00047960256  0.0003274239   0.060273607    0.0499528      0.00089547065
     42005         769   2071           0.00047946655  0.00032559793  0.060273607    0.0499528      0.00086988925
     42036         769   2071           0.00047934737  0.00032907113  0.060273607    0.0499528      0.00085386755
     42067         769   2071           0.0004793761   0.00032590218  0.060273607    0.0499528      0.00073905061
     42098         769   2071           0.00047944728  0.00032504585  0.060273607    0.0499528      0.00090280918
     42129         769   2071           0.00047933382  0.00032774902  0.060273607    0.0499528      0.00085215736
     42160         769   2071           0.00047963642  0.0003278388   0.060273607    0.0499528      0.00084588576
     42191         769   2071           0.00047973078  0.00032724138  0.060273607    0.0499528      0.00074644862
     42222         769   2071           0.00047974893  0.00032636315  0.060273607    0.0499528      0.00089671392
     42253         769   2071           0.00047964394  0.00032645494  0.060273607    0.0499528      0.00071805377
     42284         769   2071           0.00047929723  0.00032705289  0.060273607    0.0499528      0.00067468451
     42315         769   2071           0.00047948787  0.0003266159   0.060273607    0.0499528      0.00084955349
     42346         769   2071           0.00047947036  0.00032591302  0.060273607    0.0499528      0.0008378455 
     42377         769   2071           0.00047982468  0.00032847067  0.060273607    0.0499528      0.0010164251 
     42408         769   2071           0.00047944201  0.00032612581  0.060273607    0.0499528      0.00074405467
     42439         769   2071           0.0004795204   0.00032811188  0.060273607    0.0499528      0.00085020084
     42470         769   2071           0.00047953176  0.00032816411  0.060273607    0.0499528      0.00070094051
     42501         769   2071           0.00047939472  0.00032960858  0.060273607    0.0499528      0.00076034073
     42532         769   2071           0.00047928016  0.00032813992  0.060273607    0.0499528      0.00084879613
     42563         769   2071           0.00047943756  0.00032622824  0.060273607    0.0499528      0.00073682266
     42594         769   2071           0.0004797221   0.00032431176  0.060273607    0.0499528      0.00076522537
     42625         769   2071           0.00047944976  0.00032800237  0.060273607    0.0499528      0.00093001567
     42656         769   2071           0.00047938639  0.00032684141  0.060273607    0.0499528      0.00073409826
     42687         769   2071           0.00047925133  0.00032698776  0.060273607    0.0499528      0.0008064472 
     42718         769   2071           0.00047945246  0.00032610463  0.060273607    0.0499528      0.00087538717
     42749         769   2071           0.00047946074  0.00032687121  0.060273607    0.0499528      0.00094041931
     42780         769   2071           0.00047971811  0.00032480831  0.060273607    0.0499528      0.00067760041
     42811         769   2071           0.0004796809   0.00032896345  0.060273607    0.0499528      0.00068584739
     42842         769   2071           0.00047960495  0.00032686099  0.060273607    0.0499528      0.00072188863
     42873         769   2071           0.00047945893  0.00032802467  0.060273607    0.0499528      0.00086345552
     42904         769   2071           0.0004796066   0.00032631544  0.060273607    0.0499528      0.00082308733
     42935         769   2071           0.00047961863  0.0003273995   0.060273607    0.0499528      0.00092296745
     42966         769   2071           0.00047957777  0.00032732059  0.060273607    0.0499528      0.00074524522
     42997         769   2071           0.00047939703  0.00032543446  0.060273607    0.0499528      0.00085552671
     43028         769   2071           0.00047986327  0.00032783314  0.060273607    0.0499528      0.00096735984
     43059         769   2071           0.00047928148  0.00032801374  0.060273607    0.0499528      0.00084585482
     43090         769   2071           0.00047956292  0.00032728711  0.060273607    0.0499528      0.00086865968
     43121         769   2071           0.00047948839  0.00032849071  0.060273607    0.0499528      0.00077117056
     43152         769   2071           0.00047951512  0.00032831454  0.060273607    0.0499528      0.00095325349
     43183         769   2071           0.00047966057  0.00032569173  0.060273607    0.0499528      0.00082994055
     43214         769   2071           0.00047946488  0.00032715797  0.060273607    0.0499528      0.00089070175
     43245         769   2071           0.00047953219  0.00032603499  0.060273607    0.0499528      0.00080501723
     43276         769   2071           0.00047938297  0.00032612315  0.060273607    0.0499528      0.0007723124 
     43307         769   2071           0.00047983377  0.00032553797  0.060273607    0.0499528      0.00076987337
     43338         769   2071           0.00047976051  0.00032694519  0.060273607    0.0499528      0.00087946006
     43369         769   2071           0.0004794843   0.00032562337  0.060273607    0.0499528      0.00086062343
     43400         769   2071           0.000479441    0.00032688684  0.060273607    0.0499528      0.00073217745
     43431         769   2071           0.00047945875  0.00032878703  0.060273607    0.0499528      0.00093486964
     43462         769   2071           0.00047950483  0.00032723572  0.060273607    0.0499528      0.00079165936
     43493         769   2071           0.0004792998   0.00032824939  0.060273607    0.0499528      0.00093736838
     43524         769   2071           0.00047957845  0.00032906951  0.060273607    0.0499528      0.00067682208
     43555         769   2071           0.00047964697  0.00032927406  0.060273607    0.0499528      0.00087962693
     43586         769   2071           0.00047926275  0.00032611273  0.060273607    0.0499528      0.0009020631 
     43617         769   2071           0.00047962878  0.00032742383  0.060273607    0.0499528      0.00070720728
     43648         769   2071           0.00047965982  0.00032614445  0.060273607    0.0499528      0.00084247831
     43679         769   2071           0.00047971407  0.00032731263  0.060273607    0.0499528      0.00067796534
     43710         769   2071           0.00047938789  0.00032671394  0.060273607    0.0499528      0.00074577894
     43741         769   2071           0.0004796123   0.00032563571  0.060273607    0.0499528      0.00081384691
     43772         769   2071           0.0004798592   0.00032904514  0.060273607    0.0499528      0.00085627857
     43803         769   2071           0.00047969299  0.00032829969  0.060273607    0.0499528      0.00086813496
     43834         769   2071           0.00047931094  0.00032772     0.060273607    0.0499528      0.00075657319
     43865         769   2071           0.00047943717  0.0003284097   0.060273607    0.0499528      0.00076031829
     43896         769   2071           0.00047921279  0.00032766705  0.060273607    0.0499528      0.00089752859
     43927         769   2071           0.00047945834  0.00032809918  0.060273607    0.0499528      0.0007550066 
     43958         769   2071           0.00047985145  0.00032922717  0.060273607    0.0499528      0.00093161003
     43989         769   2071           0.00047944618  0.00032837158  0.060273607    0.0499528      0.00082705599
     44020         769   2071           0.00047950456  0.00032932446  0.060273607    0.0499528      0.0008434553 
     44051         769   2071           0.00047950586  0.00032806769  0.060273607    0.0499528      0.00072913847
     44082         769   2071           0.00047944723  0.00032781222  0.060273607    0.0499528      0.00086862838
     44113         769   2071           0.00047930802  0.00032603383  0.060273607    0.0499528      0.0008538076 
     44144         769   2071           0.00047966877  0.00032777157  0.060273607    0.0499528      0.0007669447 
     44175         769   2071           0.00047959982  0.00032744268  0.060273607    0.0499528      0.00072221185
     44206         769   2071           0.00047929333  0.00032705731  0.060273607    0.0499528      0.00097192107
     44237         769   2071           0.00047975116  0.00032783615  0.060273607    0.0499528      0.00088127955
     44268         769   2071           0.00047945844  0.00032645804  0.060273607    0.0499528      0.00084793379
     44299         769   2071           0.00047950966  0.00032749387  0.060273607    0.0499528      0.00088180162
     44330         769   2071           0.00047955827  0.00032722579  0.060273607    0.0499528      0.00077046576
     44361         769   2071           0.0004797635   0.00032530332  0.060273607    0.0499528      0.00088041411
     44392         769   2071           0.00047961683  0.00032735253  0.060273607    0.0499528      0.00086920495
     44423         769   2071           0.00047962309  0.00032737514  0.060273607    0.0499528      0.00088392584
     44454         769   2071           0.00047945189  0.00032751321  0.060273607    0.0499528      0.00085559495
     44485         769   2071           0.00047927449  0.00032633568  0.060273607    0.0499528      0.00077931206
     44516         769   2071           0.0004793871   0.00032735793  0.060273607    0.0499528      0.00070455756
     44547         769   2071           0.00047936568  0.00032437598  0.060273607    0.0499528      0.0009270711 
     44578         769   2071           0.00047965522  0.00032693093  0.060273607    0.0499528      0.00087944411
     44609         769   2071           0.00047953035  0.00032626289  0.060273607    0.0499528      0.00076912057
     44640         769   2071           0.00047936515  0.00032573774  0.060273607    0.0499528      0.00088067225
     44671         769   2071           0.00047955349  0.00032841678  0.060273607    0.0499528      0.00081161223
     44702         769   2071           0.00047967803  0.00032487224  0.060273607    0.0499528      0.00077518604
     44733         769   2071           0.0004797334   0.00032809835  0.060273607    0.0499528      0.00086138412
     44764         769   2071           0.0004795437   0.00032612482  0.060273607    0.0499528      0.00084050042
     44795         769   2071           0.00047932742  0.0003267916   0.060273607    0.0499528      0.00090301235
     44826         769   2071           0.00047945708  0.0003263814   0.060273607    0.0499528      0.00092801217
     44857         769   2071           0.00047992662  0.00032309639  0.060273607    0.0499528      0.00080485121
     44888         769   2071           0.000479489    0.00032660315  0.060273607    0.0499528      0.00086489065
     44919         769   2071           0.0004795075   0.00032385503  0.060273607    0.0499528      0.00087935846
     44950         769   2071           0.00047923925  0.00032476247  0.060273607    0.0499528      0.0009520907 
     44981         769   2071           0.0004798314   0.00032516906  0.060273607    0.0499528      0.00080895392
     45012         769   2071           0.00047950773  0.00032848717  0.060273607    0.0499528      0.00090513091
     45043         769   2071           0.00047948436  0.00032533295  0.060273607    0.0499528      0.00086466868
     45074         769   2071           0.00047942485  0.00032663218  0.060273607    0.0499528      0.00098976924
     45105         769   2071           0.0004791954   0.00032566732  0.060273607    0.0499528      0.00081624529
     45136         769   2071           0.00047969773  0.00032853675  0.060273607    0.0499528      0.00093115008
     45167         769   2071           0.00047945758  0.0003278732   0.060273607    0.0499528      0.00087025537
     45198         769   2071           0.00047955919  0.00032828716  0.060273607    0.0499528      0.00089414757
     45229         769   2071           0.00047945993  0.00032675477  0.060273607    0.0499528      0.00085868996
     45260         769   2071           0.00047973814  0.00032359678  0.060273607    0.0499528      0.00081718656
     45291         769   2071           0.00047929824  0.00032931596  0.060273607    0.0499528      0.00082833758
     45322         769   2071           0.0004794148   0.00032586319  0.060273607    0.0499528      0.00077174908
     45353         769   2071           0.00047941979  0.0003244456   0.060273607    0.0499528      0.00070665741
     45384         769   2071           0.00047931906  0.00032628157  0.060273607    0.0499528      0.00097302481
     45415         769   2071           0.00047964014  0.0003286294   0.060273607    0.0499528      0.00079052016
     45446         769   2071           0.00047956391  0.00032472339  0.060273607    0.0499528      0.00094642392
     45477         769   2071           0.00047943521  0.00032578071  0.060273607    0.0499528      0.00084689788
     45508         769   2071           0.00047949865  0.00032778794  0.060273607    0.0499528      0.00076953466
     45539         769   2071           0.00047938705  0.00032691448  0.060273607    0.0499528      0.00092641995
     45570         769   2071           0.00047929905  0.00032659659  0.060273607    0.0499528      0.00079857682
     45601         769   2071           0.00047962326  0.00032729859  0.060273607    0.0499528      0.00080624624
     45632         769   2071           0.00047934694  0.00032806925  0.060273607    0.0499528      0.00083202658
     45663         769   2071           0.00047931774  0.00032709769  0.060273607    0.0499528      0.00076038728
     45694         769   2071           0.00047982816  0.00032754083  0.060273607    0.0499528      0.00084708331
     45725         769   2071           0.00047948891  0.00032653435  0.060273607    0.0499528      0.00080519204
     45756         769   2071           0.00047950206  0.00032778364  0.060273607    0.0499528      0.00071069493
     45787         769   2071           0.00047968787  0.00032730901  0.060273607    0.0499528      0.0008502043 
     45818         769   2071           0.00047955879  0.0003252792   0.060273607    0.0499528      0.00087133552
     45849         769   2071           0.00047975659  0.00032521784  0.060273607    0.0499528      0.0008389723 
     45880         769   2071           0.00047936205  0.0003268057   0.060273607    0.0499528      0.00086773885
     45911         769   2071           0.00047953683  0.00032705968  0.060273607    0.0499528      0.00092389092
     45942         769   2071           0.0004793824   0.00032545622  0.060273607    0.0499528      0.00079717999
     45973         769   2071           0.00047977995  0.00032696902  0.060273607    0.0499528      0.00073769495
     46004         769   2071           0.00047964291  0.0003280845   0.060273607    0.0499528      0.00073143219
     46035         769   2071           0.00047936526  0.00032834006  0.060273607    0.0499528      0.00093469832
     46066         769   2071           0.00047935721  0.00032845944  0.060273607    0.0499528      0.00095130233
     46097         769   2071           0.00047942017  0.00032814199  0.060273607    0.0499528      0.00076432995
     46128         769   2071           0.00047970137  0.00032662611  0.060273607    0.0499528      0.00075099929
     46159         769   2071           0.00047960795  0.000327098    0.060273607    0.0499528      0.00076969748
     46190         769   2071           0.00047962896  0.00032700035  0.060273607    0.0499528      0.00088290502
     46221         769   2071           0.00047912223  0.00032803689  0.060273607    0.0499528      0.00085602857
     46252         769   2071           0.00047976135  0.00032628896  0.060273607    0.0499528      0.00068343191
     46283         769   2071           0.00047957558  0.00032373775  0.060273607    0.0499528      0.0007901566 
     46314         769   2071           0.00047959977  0.0003268665   0.060273607    0.0499528      0.00092301918
     46345         769   2071           0.00047941924  0.00032646966  0.060273607    0.0499528      0.00090817368
     46376         769   2071           0.0004794375   0.00032608344  0.060273607    0.0499528      0.0009157915 
     46407         769   2071           0.00047969732  0.00033031038  0.060273607    0.0499528      0.00069468629
     46438         769   2071           0.00047956848  0.00032617245  0.060273607    0.0499528      0.00084516763
     46469         769   2071           0.00047984607  0.00032621992  0.060273607    0.0499528      0.00077754632
     46500         769   2071           0.00047955404  0.00032785883  0.060273607    0.0499528      0.000822514  
     46531         769   2071           0.00047959249  0.00032662809  0.060273607    0.0499528      0.0008739663 
     46562         769   2071           0.00047943746  0.00032875311  0.060273607    0.0499528      0.00084286735
     46593         769   2071           0.00047950266  0.00032641499  0.060273607    0.0499528      0.00088458905
     46624         769   2071           0.00047949691  0.00032534138  0.060273607    0.0499528      0.00088047255
     46655         769   2071           0.00047932744  0.00032510115  0.060273607    0.0499528      0.00087190331
     46686         769   2071           0.00047958459  0.00032687024  0.060273607    0.0499528      0.00084818259
     46717         769   2071           0.0004794888   0.00032723843  0.060273607    0.0499528      0.00077712672
     46748         769   2071           0.00047964995  0.0003257231   0.060273607    0.0499528      0.00084106741
     46779         769   2071           0.00047967943  0.00032477936  0.060273607    0.0499528      0.00083680024
     46810         769   2071           0.00047926245  0.00032709762  0.060273607    0.0499528      0.00083834253
     46841         769   2071           0.00047971074  0.00032726432  0.060273607    0.0499528      0.00084813329
     46872         769   2071           0.00047963672  0.00032487753  0.060273607    0.0499528      0.00094178438
     46903         769   2071           0.00047949217  0.00032885016  0.060273607    0.0499528      0.00089490989
     46934         769   2071           0.00047918499  0.0003249344   0.060273607    0.0499528      0.00075340572
     46965         769   2071           0.00047969773  0.00032577865  0.060273607    0.0499528      0.00089583985
     46996         769   2071           0.00047926671  0.00032719088  0.060273607    0.0499528      0.00086560332
     47027         769   2071           0.00047948031  0.00032696343  0.060273607    0.0499528      0.0008391024 
     47058         769   2071           0.00047953769  0.00032869436  0.060273607    0.0499528      0.00092626598
     47089         769   2071           0.00047951252  0.00032794952  0.060273607    0.0499528      0.00076228225
     47120         769   2071           0.00047957295  0.00032396637  0.060273607    0.0499528      0.00083926539
     47151         769   2071           0.00047942627  0.00032821336  0.060273607    0.0499528      0.00081980344
     47182         769   2071           0.00047939718  0.0003277412   0.060273607    0.0499528      0.00084043661
     47213         769   2071           0.0004793302   0.00032645876  0.060273607    0.0499528      0.00091579236
     47244         769   2071           0.0004796567   0.00032558785  0.060273607    0.0499528      0.00094902892
     47275         769   2071           0.00047961628  0.00032709261  0.060273607    0.0499528      0.0009468666 
     47306         769   2071           0.00047962789  0.00032509296  0.060273607    0.0499528      0.00085735878
     47337         769   2071           0.00047952607  0.0003291122   0.060273607    0.0499528      0.00088309555
     47368         769   2071           0.0004796341   0.00032645701  0.060273607    0.0499528      0.00081604872
     47399         769   2071           0.00047961872  0.00032769518  0.060273607    0.0499528      0.00071456834
     47430         769   2071           0.00047944367  0.0003284018   0.060273607    0.0499528      0.00079453233
     47461         769   2071           0.00047957785  0.00032893199  0.060273607    0.0499528      0.00079691361
     47492         769   2071           0.00047940643  0.00032533483  0.060273607    0.0499528      0.00080425609
     47523         769   2071           0.00047949335  0.00032716625  0.060273607    0.0499528      0.00085253255
     47554         769   2071           0.00047961991  0.00032698325  0.060273607    0.0499528      0.00094805039
     47585         769   2071           0.00047963069  0.000326558    0.060273607    0.0499528      0.00081349884
     47616         769   2071           0.00047966831  0.00032409092  0.060273607    0.0499528      0.00095798226
     47647         769   2071           0.00047938087  0.00032600969  0.060273607    0.0499528      0.00076807283
     47678         769   2071           0.00047960701  0.0003262277   0.060273607    0.0499528      0.00079147761
     47709         769   2071           0.00047946878  0.00032730533  0.060273607    0.0499528      0.00088327923
     47740         769   2071           0.00047947427  0.00032930677  0.060273607    0.0499528      0.00082374832
     47771         769   2071           0.00047936695  0.00032766859  0.060273607    0.0499528      0.0006688497 
     47802         769   2071           0.00047958156  0.00032870197  0.060273607    0.0499528      0.00081749113
     47833         769   2071           0.00047962765  0.00032689066  0.060273607    0.0499528      0.00092597839
     47864         769   2071           0.00047966635  0.00032779526  0.060273607    0.0499528      0.00093700294
     47895         769   2071           0.0004793182   0.00032745754  0.060273607    0.0499528      0.00077338413
     47926         769   2071           0.00047940627  0.00032679365  0.060273607    0.0499528      0.00085217602
     47957         769   2071           0.00047939131  0.00032603478  0.060273607    0.0499528      0.00088285386
     47988         769   2071           0.00047944712  0.00032747677  0.060273607    0.0499528      0.00078126208
     48019         769   2071           0.00047965784  0.00032605459  0.060273607    0.0499528      0.00075102285
     48050         769   2071           0.00047914061  0.0003270842   0.060273607    0.0499528      0.00074378536
     48081         769   2071           0.0004796111   0.00032637666  0.060273607    0.0499528      0.0009059221 
     48112         769   2071           0.00047958938  0.00032625459  0.060273607    0.0499528      0.0008683515 
     48143         769   2071           0.00047966716  0.00032895224  0.060273607    0.0499528      0.00081348122
     48174         769   2071           0.00047950177  0.00033018051  0.060273607    0.0499528      0.00098141183
     48205         769   2071           0.00047957483  0.00032680628  0.060273607    0.0499528      0.00085813638
     48236         769   2071           0.0004796401   0.00032658485  0.060273607    0.0499528      0.00078378721
     48267         769   2071           0.00047943969  0.00032683302  0.060273607    0.0499528      0.0008437912 
     48298         769   2071           0.00047948319  0.00032866315  0.060273607    0.0499528      0.00075145281
     48329         769   2071           0.00047930821  0.00032773301  0.060273607    0.0499528      0.00087873064
     48360         769   2071           0.0004795236   0.00032794136  0.060273607    0.0499528      0.00087968791
     48391         769   2071           0.00047951995  0.00032685804  0.060273607    0.0499528      0.00090101512
     48422         769   2071           0.00047970767  0.00032730073  0.060273607    0.0499528      0.00076677523
     48453         769   2071           0.00047939306  0.00032481613  0.060273607    0.0499528      0.00082305564
     48484         769   2071           0.00047975237  0.00032806929  0.060273607    0.0499528      0.00083873777
     48515         769   2071           0.00047956169  0.0003270984   0.060273607    0.0499528      0.00061120892
     48546         769   2071           0.00047939855  0.00032841673  0.060273607    0.0499528      0.00089598912
     48577         769   2071           0.00047913514  0.0003287245   0.060273607    0.0499528      0.00096155339
     48608         769   2071           0.00047959462  0.00032427993  0.060273607    0.0499528      0.00083107814
     48639         769   2071           0.00047948264  0.00032764001  0.060273607    0.0499528      0.00096718324
     48670         769   2071           0.00047935548  0.00032781487  0.060273607    0.0499528      0.00078959235
     48701         769   2071           0.00047941879  0.0003275937   0.060273607    0.0499528      0.00095988048
     48732         769   2071           0.00047959574  0.00032498026  0.060273607    0.0499528      0.00073363308
     48763         769   2071           0.00047969929  0.00032633832  0.060273607    0.0499528      0.00086417028
     48794         769   2071           0.00047982674  0.00032677161  0.060273607    0.0499528      0.00078960787
     48825         769   2071           0.00047957445  0.00032758312  0.060273607    0.0499528      0.00094352509
     48856         769   2071           0.00047979264  0.00032709909  0.060273607    0.0499528      0.00089323887
     48887         769   2071           0.00047944564  0.00032773693  0.060273607    0.0499528      0.00077664171
     48918         769   2071           0.00047935358  0.00032770392  0.060273607    0.0499528      0.00070309105
     48949         769   2071           0.00047947167  0.00032390803  0.060273607    0.0499528      0.00088244612
     48980         769   2071           0.00047964495  0.00032701865  0.060273607    0.0499528      0.00069745144
     49011         769   2071           0.00047980416  0.000325918    0.060273607    0.0499528      0.00085834878
     49042         769   2071           0.00047958938  0.00032855273  0.060273607    0.0499528      0.00070181474
     49073         769   2071           0.00047969281  0.00032719156  0.060273607    0.0499528      0.00085287088
     49104         769   2071           0.00047938479  0.00032805332  0.060273607    0.0499528      0.00086268615
     49135         769   2071           0.00047961901  0.00032397643  0.060273607    0.0499528      0.00088940465
     49166         769   2071           0.00047948451  0.0003294111   0.060273607    0.0499528      0.00085341106
     49197         769   2071           0.0004795207   0.00032542386  0.060273607    0.0499528      0.0007827307 
     49228         769   2071           0.00047952818  0.00032665808  0.060273607    0.0499528      0.00066670803
     49259         769   2071           0.00047979775  0.00032765948  0.060273607    0.0499528      0.00082842861
     49290         769   2071           0.00047933529  0.00032633151  0.060273607    0.0499528      0.0008537195 
     49321         769   2071           0.00047931122  0.00032799126  0.060273607    0.0499528      0.00085807319
     49352         769   2071           0.00047957689  0.00032678437  0.060273607    0.0499528      0.00075581885
     49383         769   2071           0.000479767    0.00032261834  0.060273607    0.0499528      0.00076352328
     49414         769   2071           0.00047931681  0.00032729454  0.060273607    0.0499528      0.00083858461
     49445         769   2071           0.00047943275  0.00032726207  0.060273607    0.0499528      0.00088008522
     49476         769   2071           0.0004794576   0.00032836185  0.060273607    0.0499528      0.0008224344 
     49507         769   2071           0.00047941842  0.00032336861  0.060273607    0.0499528      0.00086404569
     49538         769   2071           0.00047940652  0.00032596692  0.060273607    0.0499528      0.00069503004
     49569         769   2071           0.00047979404  0.00032722705  0.060273607    0.0499528      0.00099218674
     49600         769   2071           0.00047947057  0.00032532345  0.060273607    0.0499528      0.00085635498
     49631         769   2071           0.00047969747  0.00032427669  0.060273607    0.0499528      0.00083334758
     49662         769   2071           0.00047964093  0.0003257324   0.060273607    0.0499528      0.00075719712
     49693         769   2071           0.00047940114  0.00032834017  0.060273607    0.0499528      0.00091665617
     49724         769   2071           0.00047940745  0.00032626054  0.060273607    0.0499528      0.00076339589
     49755         769   2071           0.00047963979  0.00032640742  0.060273607    0.0499528      0.00095068043
     49786         769   2071           0.00047955774  0.00032760501  0.060273607    0.0499528      0.00084600927
     49817         769   2071           0.0004795714   0.00032715309  0.060273607    0.0499528      0.00068346664
     49848         769   2071           0.00047919913  0.00032612983  0.060273607    0.0499528      0.00078626973
     49879         769   2071           0.00047952805  0.00032532195  0.060273607    0.0499528      0.00085495601
     49910         769   2071           0.00047968949  0.00032745942  0.060273607    0.0499528      0.00092665289
     49941         769   2071           0.00047940658  0.00032615733  0.060273607    0.0499528      0.00082467846
     49972         769   2071           0.00047933183  0.00032538831  0.060273607    0.0499528      0.00087376013
     50000         769   2071           0.00047939725  0.00032696278  0.060273607    0.0499528      0.00074841056
Loop time of 3.44679 on 8 procs for 50000 steps with 769 atoms

92.6% CPU use with 8 MPI tasks x 1 OpenMP threads

MPI task timing breakdown:
Section |  min time  |  avg time  |  max time  |%varavg| %total
---------------------------------------------------------------
Pair    | 0.45476    | 0.51834    | 0.6168     |   6.5 | 15.04
Bond    | 0.17716    | 0.21122    | 0.29667    |   7.6 |  6.13
Neigh   | 0.0012939  | 0.0013039  | 0.0013209  |   0.0 |  0.04
Comm    | 1.866      | 1.9544     | 2.0082     |   3.4 | 56.70
Output  | 0.087309   | 0.13061    | 0.39775    |  28.0 |  3.79
Modify  | 0.084031   | 0.088977   | 0.09324    |   0.8 |  2.58
Other   |            | 0.5419     |            |       | 15.72

Nlocal:         96.125 ave         100 max          90 min
Histogram: 1 0 0 0 2 0 1 0 2 2
Nghost:        360.375 ave         447 max         274 min
Histogram: 4 0 0 0 0 0 0 0 0 4
Neighs:        1802.25 ave        2258 max        1543 min
Histogram: 2 1 1 1 1 1 0 0 0 1

Total # of neighbors = 14418
Ave neighs/atom = 18.749025
Ave special neighs/atom = 5.3862159
Neighbor list builds = 4
Dangerous builds = 0

undump          mydumpdebug
undump          bondsdumpdebug

####################################
#### Setup final thermo and computes
####################################

fix              dynamics all bond/dynamic 1 1 1 ${ka0} ${kd_bar} ${Lmax} maxbond 6 critical ${Lfc} catch ${f0} ${f0} ${B}
fix              dynamics all bond/dynamic 1 1 1 0.0848 ${kd_bar} ${Lmax} maxbond 6 critical ${Lfc} catch ${f0} ${f0} ${B}
fix              dynamics all bond/dynamic 1 1 1 0.0848 0.0037 ${Lmax} maxbond 6 critical ${Lfc} catch ${f0} ${f0} ${B}
fix              dynamics all bond/dynamic 1 1 1 0.0848 0.0037 0.0028 maxbond 6 critical ${Lfc} catch ${f0} ${f0} ${B}
fix              dynamics all bond/dynamic 1 1 1 0.0848 0.0037 0.0028 maxbond 6 critical 0.004125404 catch ${f0} ${f0} ${B}
fix              dynamics all bond/dynamic 1 1 1 0.0848 0.0037 0.0028 maxbond 6 critical 0.004125404 catch 0.0004 ${f0} ${B}
fix              dynamics all bond/dynamic 1 1 1 0.0848 0.0037 0.0028 maxbond 6 critical 0.004125404 catch 0.0004 0.0004 ${B}
fix              dynamics all bond/dynamic 1 1 1 0.0848 0.0037 0.0028 maxbond 6 critical 0.004125404 catch 0.0004 0.0004 1

# Fix simulation in the y direction
change_box      all boundary s f p
Changing box ...

# Compute 'press' stress on each atom and sum throughout system
compute         6 all stress/atom NULL
compute         Pbond all reduce sum c_6[*]

# Define stretch in the y direction
variable        H equal yhi-ylo
variable        lamy equal v_H/v_H0

# Potential bond energy
compute         PE all pe bond
variable        psi equal c_PE

# Stress variables
variable        Pb1 equal c_Pbond[1]
variable        Pb2 equal c_Pbond[2]
variable        Pb12 equal c_Pbond[4]

# Outputs in command window
variable        vfmax equal fmax
thermo_style    custom step atoms v_vbonds v_psi epair v_lamy v_Bmax v_vfmax v_Pb2
WARNING: New thermo_style command, previous thermo_modify settings will be lost (src/output.cpp:904)
thermo          $(v_nthermo)
thermo          31
thermo_modify	flush yes lost warn lost/bond warn

####################################
#### Apply deformation
####################################

reset_timestep  0 time 0
variable        vtime equal time
fix             printS all print 1 "${vtime} ${H} ${lamy} ${Pb1} ${Pb2} ${Pb12} ${psi}" file Energy.out screen no title ""
run             0
Generated 0 of 0 mixed pair_coeff terms from geometric mixing rule
Neighbor list info ...
  update: every = 1 steps, delay = 0 steps, check = yes
  max neighbors/atom: 100000, page size: 1000000
  master list distance cutoff = 0.01855
  ghost atom cutoff = 0.01855
  binsize = 0.009275, bins = 7 6 1
  3 neighbor lists, perpetual/occasional/extra = 2 1 0
  (1) pair yukawa, perpetual, trim from (2)
      attributes: half, newton on, cut 0.007349999999999999
      pair build: trim
      stencil: none
      bin: none
  (2) pair zero, perpetual
      attributes: half, newton on
      pair build: half/bin/newton
      stencil: half/bin/2d
      bin: standard
  (3) fix bond/dynamic, occasional, copy from (2)
      attributes: half, newton on
      pair build: copy
      stencil: none
      bin: none
Per MPI rank memory allocation (min/avg/max) = 26.41 | 26.49 | 26.57 Mbytes
   Step        Atoms       v_vbonds        v_psi          E_pair         v_lamy         v_Bmax        v_vfmax         v_Pb2     
         0         769   2071           0.00047939725  0.00032696278  1              0.0036671242   0.00074653954 -0.00042897652
Loop time of 5.05e-06 on 8 procs for 0 steps with 769 atoms

118.8% CPU use with 8 MPI tasks x 1 OpenMP threads

MPI task timing breakdown:
Section |  min time  |  avg time  |  max time  |%varavg| %total
---------------------------------------------------------------
Pair    | 0          | 0          | 0          |   0.0 |  0.00
Bond    | 0          | 0          | 0          |   0.0 |  0.00
Neigh   | 0          | 0          | 0          |   0.0 |  0.00
Comm    | 0          | 0          | 0          |   0.0 |  0.00
Output  | 0          | 0          | 0          |   0.0 |  0.00
Modify  | 0          | 0          | 0          |   0.0 |  0.00
Other   |            | 5.05e-06   |            |       |100.00

Nlocal:         96.125 ave         102 max          87 min
Histogram: 1 0 0 1 1 0 1 0 3 1
Nghost:         369.75 ave         459 max         283 min
Histogram: 4 0 0 0 0 0 0 0 0 4
Neighs:        1872.25 ave        2348 max        1582 min
Histogram: 2 1 1 1 0 0 2 0 0 1

Total # of neighbors = 14978
Ave neighs/atom = 19.477243
Ave special neighs/atom = 5.3862159
Neighbor list builds = 0
Dangerous builds = 0
unfix           printS

### First outputs to files ###
fix             printS all print ${nout} "${vtime} ${H} ${lamy} ${Pb1} ${Pb2} ${Pb12} ${psi}" append Energy.out screen no title ""
fix             printS all print 301 "${vtime} ${H} ${lamy} ${Pb1} ${Pb2} ${Pb12} ${psi}" append Energy.out screen no title ""
dump            mydump all custom ${nout} atoms.dump id type mol x y
dump            mydump all custom 301 atoms.dump id type mol x y
dump 		    bondsdump all local ${nout} bonds.dump c_1[*] c_2[*]
dump 		    bondsdump all local 301 bonds.dump c_1[*] c_2[*]
dump_modify     mydump first yes
dump_modify     bondsdump first yes

### Apply deformation ###
fix             stretch boundary_atoms deform 1 y erate ${erate}
fix             stretch boundary_atoms deform 1 y erate 0.074
timestep        $(v_dt)
timestep        0.00067563187300704501473
run             $(ceil(v_Nrun))
run             60004
Generated 0 of 0 mixed pair_coeff terms from geometric mixing rule
Per MPI rank memory allocation (min/avg/max) = 26.41 | 26.49 | 26.57 Mbytes
   Step        Atoms       v_vbonds        v_psi          E_pair         v_lamy         v_Bmax        v_vfmax         v_Pb2     
         0         769   2071           0.00047939725  0.00032696278  1              0.0036671242   0.00074653954 -0.00042897652
        31         769   2072           0.00048049012  0.00032559222  1.0015499      0.0036585147   0.00089667482 -0.00042643813
        62         769   2071           0.00048086213  0.00032342994  1.0030998      0.0036669281   0.00085002368 -0.00041524916
        93         769   2071           0.00048078943  0.00032314606  1.0046497      0.0036875125   0.00088811078 -0.00040928136
       124         769   2071           0.00048137969  0.00032071087  1.0061996      0.0036707433   0.00075583747 -0.00040662679
       155         769   2070           0.00048100302  0.00031882403  1.0077495      0.003667128    0.00087250367 -0.00039131396
       186         769   2068           0.00047985994  0.00031591229  1.0092994      0.0036730455   0.00085306012 -0.00039185826
       217         769   2067           0.00048027879  0.00031589015  1.0108493      0.0036861074   0.00083464469 -0.00038575489
       248         769   2066           0.00048019792  0.00031409614  1.0123992      0.0036842855   0.00082821862 -0.00037880671
       279         769   2066           0.00048044696  0.00031408236  1.0139491      0.003684423    0.00071272613 -0.00037813802
       310         769   2066           0.00048050499  0.00031207035  1.015499       0.0036759236   0.00082400733 -0.00037686273
       341         769   2066           0.00048092067  0.00031064478  1.0170489      0.003685846    0.00085507307 -0.00036139433
       372         769   2066           0.00048063459  0.00031249777  1.0185988      0.0036716773   0.00090919542 -0.00036429249
       403         769   2063           0.00048018935  0.00031053728  1.0201487      0.0036998538   0.00092114488 -0.0003558085 
       434         769   2062           0.00048000344  0.00030840863  1.0216986      0.0036771694   0.000767271   -0.00035699947
       465         769   2062           0.00047983849  0.0003075615   1.0232485      0.0036885938   0.00093084848 -0.00034921935
       496         769   2062           0.00047998663  0.00030867318  1.0247984      0.0036767413   0.00091630461 -0.00035013845
       527         769   2061           0.00047991737  0.00030852373  1.0263483      0.0036719157   0.00082374966 -0.00034838734
       558         769   2061           0.00047986215  0.00030787848  1.0278982      0.0036710782   0.00096203057 -0.00034516605
       589         769   2061           0.00048024192  0.00030258093  1.0294481      0.0036785975   0.00087748529 -0.00033322078
       620         769   2059           0.00047983982  0.00030479935  1.030998       0.003660302    0.00073435045 -0.00032910351
       651         769   2058           0.00048020033  0.0003006324   1.0325479      0.0036929119   0.00087204905 -0.00031147879
       682         769   2058           0.00048016826  0.00030278267  1.0340978      0.0036923581   0.000673938   -0.00031952629
       713         769   2057           0.0004798385   0.00029978636  1.0356477      0.0036721209   0.00071436629 -0.00030958366
       744         769   2057           0.00048010096  0.00029627976  1.0371976      0.0037097039   0.00073247433 -0.00029853525
       775         769   2057           0.00048033557  0.00029785165  1.0387475      0.0036792414   0.00077229205 -0.0003032172 
       806         769   2058           0.0004813242   0.00029562879  1.0402974      0.0036937034   0.00087205275 -0.00029441059
       837         769   2057           0.00048090264  0.00029688563  1.0418473      0.0036953914   0.00082782538 -0.00028892748
       868         769   2054           0.00048015171  0.00029596979  1.0433972      0.0036868881   0.00094660654 -0.00028345333
       899         769   2053           0.00048015137  0.00029484183  1.0449471      0.0036780063   0.00069044213 -0.00028294674
       930         769   2053           0.00048057027  0.00029496451  1.046497       0.0037042209   0.00090388686 -0.00028111724
       961         769   2054           0.0004808952   0.0002894724   1.0480469      0.0036616327   0.00084007961 -0.00026682336
       992         769   2054           0.00048129322  0.00029126265  1.0495968      0.0036898254   0.0006803886  -0.00026560657
      1023         769   2054           0.00048120023  0.00029161538  1.0511467      0.0036879187   0.00068267569 -0.00025900026
      1054         769   2052           0.00048094654  0.00029057588  1.0526966      0.0036925859   0.00082938151 -0.00025764001
      1085         769   2052           0.00048175215  0.00028691817  1.0542465      0.0036991138   0.00086431016 -0.00024477174
      1116         769   2052           0.00048196082  0.00028472017  1.0557964      0.0036748124   0.00086265698 -0.00024018354
      1147         769   2052           0.00048191454  0.00028768418  1.0573463      0.0037128686   0.00074126194 -0.00024361354
      1178         769   2052           0.00048244713  0.00028298532  1.0588962      0.0037037018   0.00084177608 -0.00022521486
      1209         769   2051           0.0004829482   0.00028243272  1.0604461      0.0036823701   0.00082802155 -0.00021908616
      1240         769   2051           0.00048293936  0.00028030138  1.061996       0.0036854427   0.00067761194 -0.00021940549
      1271         769   2050           0.00048301409  0.00028120834  1.0635459      0.0037349936   0.00079139438 -0.00021670843
      1302         769   2049           0.00048271694  0.00028172394  1.0650958      0.0037147943   0.00082339011 -0.00021704775
      1333         769   2049           0.00048293332  0.00028035491  1.0666457      0.0037085273   0.00096199244 -0.00020214061
      1364         769   2049           0.00048318316  0.00027883817  1.0681956      0.0037384728   0.00083156535 -0.00019564212
      1395         769   2049           0.0004835724   0.00027817045  1.0697455      0.0037062047   0.00083805399 -0.00019543302
      1426         769   2049           0.00048368484  0.00028018328  1.0712954      0.0037121566   0.00082576689 -0.00019989558
      1457         769   2048           0.00048386568  0.00027519753  1.0728453      0.0037357567   0.00079877824 -0.00017618947
      1488         769   2047           0.00048401247  0.00027487345  1.0743952      0.0037176714   0.00071022693 -0.00017541586
      1519         769   2047           0.00048425327  0.00027181187  1.0759451      0.0037158039   0.00072051899 -0.00016264844
      1550         769   2047           0.00048504668  0.00027395761  1.077495       0.0037190935   0.00097802235 -0.00016614779
      1581         769   2046           0.00048490562  0.00027270261  1.0790449      0.0037342144   0.00087969505 -0.0001606837 
      1612         769   2044           0.00048434956  0.00027048125  1.0805948      0.0037320559   0.00083399525 -0.00015708231
      1643         769   2044           0.00048475901  0.00026770865  1.0821447      0.003718558    0.00088098199 -0.00014114166
      1674         769   2044           0.00048520345  0.00026927851  1.0836946      0.0037186816   0.00082008801 -0.00015024805
      1705         769   2044           0.00048526962  0.00026618638  1.0852445      0.0037028425   0.00083393301 -0.00013865127
      1736         769   2043           0.00048560159  0.00026594933  1.0867944      0.0037431242   0.00086668938 -0.00013390107
      1767         769   2044           0.00048607198  0.00026623226  1.0883443      0.00371047     0.00076507763 -0.00013968159
      1798         769   2045           0.0004867353   0.00026420816  1.0898942      0.0037366269   0.00087944154 -0.00011716513
      1829         769   2045           0.00048682852  0.00026214601  1.0914441      0.0037601847   0.0011422716  -0.00010737265
      1860         769   2043           0.00048589937  0.00026198771  1.092994       0.0037727415   0.00088670582 -0.00010984859
      1891         769   2041           0.00048547219  0.00026204315  1.0945439      0.0037345987   0.00078645654 -0.00011154031
      1922         769   2040           0.00048571159  0.00026256048  1.0960938      0.0038118717   0.00078121162 -0.0001119592 
      1953         769   2040           0.00048606925  0.00026109059  1.0976437      0.0037778741   0.00086298207 -0.00010902568
      1984         769   2040           0.00048651842  0.0002585257   1.0991936      0.0037797539   0.00094654499 -0.00010204125
      2015         769   2039           0.00048687207  0.00025472456  1.1007435      0.0037965433   0.00076249896 -7.8135774e-05
      2046         769   2039           0.00048717217  0.00025786145  1.1022934      0.0037560414   0.00092993783 -9.4570979e-05
      2077         769   2039           0.00048734479  0.00025734142  1.1038433      0.0038062836   0.00080404413 -7.6721753e-05
      2108         769   2039           0.00048794141  0.00025567745  1.1053932      0.003824363    0.00099417137 -7.7693501e-05
      2139         769   2038           0.00048738146  0.00025726721  1.1069431      0.0038236706   0.00078127474 -8.3030787e-05
      2170         769   2038           0.00048794154  0.00025351785  1.108493       0.0038449499   0.00082217906 -6.4755271e-05
      2201         769   2038           0.00048831681  0.00025248925  1.1100429      0.0038182627   0.00093769808 -6.0524781e-05
      2232         769   2038           0.00048875353  0.00025158369  1.1115928      0.0038278049   0.00096156286 -5.7430639e-05
      2263         769   2037           0.00048836323  0.00025313353  1.1131427      0.0038001126   0.00070195155 -6.3125922e-05
      2294         769   2037           0.00048869044  0.00024989511  1.1146926      0.0038099894   0.00087437979 -5.2473656e-05
      2325         769   2036           0.00048910679  0.00024970129  1.1162425      0.0038145904   0.00082325588 -5.4892389e-05
      2356         769   2037           0.00048972468  0.00024920886  1.1177924      0.0038093653   0.00077035708 -3.7507691e-05
      2387         769   2037           0.00049005203  0.00024803344  1.1193423      0.0037903016   0.00089205702 -3.4988695e-05
      2418         769   2036           0.00049011619  0.0002458538   1.1208922      0.0038269369   0.00086581818 -2.1861718e-05
      2449         769   2036           0.00049042546  0.000246027    1.1224421      0.0037808347   0.00089063644 -2.2814128e-05
      2480         769   2036           0.00049051014  0.00024732979  1.123992       0.0038023077   0.0007529846  -2.9418935e-05
      2511         769   2036           0.0004909344   0.00024496713  1.1255419      0.0037738831   0.00092361334 -1.6988797e-05
      2542         769   2035           0.00049170093  0.0002435383   1.1270918      0.0037826683   0.00080340334 -1.2501768e-05
      2573         769   2035           0.00049194031  0.00024397982  1.1286417      0.003787458    0.00081874506 -6.3607698e-06
      2604         769   2035           0.00049273044  0.00024349836  1.1301916      0.0038018067   0.00083736877 -4.4031098e-06
      2635         769   2035           0.00049274816  0.00024129768  1.1317415      0.0037778903   0.00076293368  3.0112387e-06
      2666         769   2035           0.00049327548  0.00023985329  1.1332914      0.0037965163   0.00095103637  1.5601051e-05
      2697         769   2036           0.00049396796  0.00024101725  1.1348413      0.0037961975   0.00079457294  1.6873094e-05
      2728         769   2035           0.00049409885  0.00023762309  1.1363912      0.0037805735   0.00084325346  2.3209807e-05
      2759         769   2035           0.00049490966  0.00023780757  1.1379411      0.0037981286   0.00081345871  2.7392302e-05
      2790         769   2033           0.00049406128  0.00023595791  1.139491       0.0037918636   0.00087247761  3.6945529e-05
      2821         769   2033           0.00049416366  0.00023527895  1.1410409      0.0037989407   0.00070285088  3.9318829e-05
      2852         769   2033           0.00049472067  0.00023813887  1.1425908      0.0037647709   0.0007436906   3.4183796e-05
      2883         769   2032           0.00049506932  0.00023509709  1.1441407      0.0037562847   0.00087684074  3.8065909e-05
      2914         769   2032           0.00049554653  0.00023479604  1.1456906      0.0037715934   0.00096162525  4.5238626e-05
      2945         769   2031           0.00049563441  0.00023326961  1.1472405      0.0037716189   0.00072811488  5.9133802e-05
      2976         769   2031           0.00049630866  0.00023236764  1.1487904      0.0037892098   0.00093963982  5.9800314e-05
      3007         769   2030           0.00049648968  0.00023090997  1.1503403      0.0038027548   0.00071186921  6.0470653e-05
      3038         769   2030           0.00049696482  0.00022869761  1.1518902      0.0037982827   0.00091049677  7.3614418e-05
      3069         769   2030           0.00049745657  0.00023062815  1.1534401      0.0037820987   0.0008081729   7.3788173e-05
      3100         769   2028           0.00049770819  0.00023161335  1.15499        0.0037672723   0.00070608445  7.249156e-05 
      3131         769   2028           0.00049820995  0.00022876682  1.1565399      0.0037650153   0.0008179901   8.0291092e-05
      3162         769   2028           0.00049818142  0.00022669365  1.1580898      0.00379302     0.00078129055  8.5006786e-05
      3193         769   2026           0.00049874344  0.00022405807  1.1596397      0.0037653238   0.00085496385  0.00010069769
      3224         769   2024           0.000498907    0.00022679814  1.1611895      0.0038055838   0.00082670616  9.1079785e-05
      3255         769   2023           0.00049845445  0.00022542444  1.1627394      0.0037705679   0.00087300756  0.00010393946
      3286         769   2023           0.000499439    0.00022638238  1.1642893      0.0037924731   0.0008762152   0.00010138129
      3317         769   2023           0.00050034363  0.00022400412  1.1658392      0.0037859802   0.00089258157  0.00011587159
      3348         769   2023           0.00050015818  0.00022438034  1.1673891      0.0037847836   0.00090283747  0.00011808997
      3379         769   2023           0.00050107815  0.00022125422  1.168939       0.0037713923   0.00083874204  0.00013078868
      3410         769   2021           0.00050067719  0.00022170075  1.1704889      0.0037902609   0.00093420757  0.00012486997
      3441         769   2021           0.00050124803  0.00022301481  1.1720388      0.0037866833   0.00085407212  0.00012647428
      3472         769   2020           0.00050159944  0.00021969886  1.1735887      0.0037793977   0.00068097562  0.00014288229
      3503         769   2020           0.00050237213  0.00021920564  1.1751386      0.0037919464   0.00080412214  0.00015065885
      3534         769   2019           0.00050265454  0.0002205031   1.1766885      0.0037762507   0.00085920813  0.00014000186
      3565         769   2019           0.00050271473  0.00022005013  1.1782384      0.0038053857   0.00084652626  0.00014310254
      3596         769   2018           0.00050326654  0.0002178629   1.1797883      0.0037972825   0.00076490952  0.00015608594
      3627         769   2019           0.00050410262  0.00021461123  1.1813382      0.0037958357   0.00084068331  0.00016574467
      3658         769   2018           0.00050494981  0.00021779909  1.1828881      0.0038236385   0.00085510611  0.00016039468
      3689         769   2018           0.00050540881  0.00021527076  1.184438       0.0037884887   0.00087957359  0.00017433672
      3720         769   2018           0.00050607845  0.000213816    1.1859879      0.0038032927   0.0008886303   0.00018524301
      3751         769   2017           0.0005064142   0.00021387808  1.1875378      0.0037905064   0.00083227093  0.00018625462
      3782         769   2017           0.00050667573  0.00021242673  1.1890877      0.0038023762   0.00076267232  0.00018012206
      3813         769   2017           0.00050687306  0.00020938069  1.1906376      0.0038179457   0.00089412177  0.00020126074
      3844         769   2016           0.00050782231  0.00020924356  1.1921875      0.0037842047   0.00086801797  0.00020861429
      3875         769   2016           0.00050826065  0.00021008328  1.1937374      0.003778097    0.00075200604  0.00020646561
      3906         769   2016           0.00050867731  0.00020908755  1.1952873      0.0038016829   0.00088888227  0.00021564278
      3937         769   2016           0.00050925222  0.00020770272  1.1968372      0.0038146904   0.00083540965  0.00022380941
      3968         769   2017           0.00051028845  0.000206657    1.1983871      0.0038389834   0.00094816118  0.00022785846
      3999         769   2016           0.00051090976  0.00020553062  1.199937       0.0037933229   0.00091179038  0.00023624183
      4030         769   2016           0.00051120806  0.00020648062  1.2014869      0.0037856861   0.00082797816  0.00023903776
      4061         769   2016           0.000511974    0.00020561735  1.2030368      0.0038307687   0.00078463864  0.00024301316
      4092         769   2016           0.0005125291   0.00020399469  1.2045867      0.0038331018   0.00091031543  0.00024798931
      4123         769   2016           0.00051288428  0.00020066576  1.2061366      0.0038120283   0.00076953475  0.00026884706
      4154         769   2017           0.00051418817  0.00020172024  1.2076865      0.0038149875   0.00090769785  0.00026376974
      4185         769   2018           0.00051474753  0.00020301595  1.2092364      0.003809202    0.00085760486  0.00025759312
      4216         769   2018           0.00051551006  0.00020222491  1.2107863      0.0037973986   0.00086696055  0.00026849059
      4247         769   2018           0.00051596063  0.00019894266  1.2123362      0.0038196503   0.00079543007  0.00028581118
      4278         769   2017           0.00051647281  0.00020069293  1.2138861      0.0037904838   0.00079352133  0.00028802607
      4309         769   2017           0.00051687839  0.00019807519  1.215436       0.0038524398   0.00095791925  0.00028306624
      4340         769   2017           0.00051775241  0.00019735054  1.2169859      0.0038409121   0.00075046747  0.00029690531
      4371         769   2016           0.00051776889  0.00019785555  1.2185358      0.0038630188   0.00090508211  0.00029817378
      4402         769   2016           0.00051860079  0.00019567728  1.2200857      0.0038068856   0.00071498066  0.00030882645
      4433         769   2015           0.00051912944  0.00019408907  1.2216356      0.0038460671   0.00074643032  0.0003216052 
      4464         769   2014           0.00051964587  0.00019505118  1.2231855      0.0038154545   0.00077515955  0.00031628928
      4495         769   2014           0.00052011961  0.00019441652  1.2247354      0.0038416074   0.00078412192  0.00032201699
      4526         769   2015           0.00052115974  0.00019491601  1.2262853      0.0038316879   0.0007786599   0.0003283079 
      4557         769   2014           0.00052131308  0.00019487526  1.2278352      0.0038765401   0.00075338814  0.00032273529
      4588         769   2013           0.0005217333   0.0001909671   1.2293851      0.0038225632   0.00087661987  0.00034203617
      4619         769   2012           0.00052190279  0.00019134142  1.230935       0.0038441805   0.0009525742   0.00033568595
      4650         769   2012           0.0005226379   0.00019348434  1.2324849      0.0038412535   0.00078194756  0.00033753471
      4681         769   2012           0.00052319684  0.00019115846  1.2340348      0.0038379329   0.00082802896  0.00035150283
      4712         769   2011           0.00052356341  0.00019114233  1.2355847      0.0038514417   0.00087576836  0.00034881671
      4743         769   2012           0.00052413596  0.00019162166  1.2371346      0.0038452313   0.00087236469  0.00035116972
      4774         769   2012           0.00052475066  0.00019079266  1.2386845      0.0038583669   0.00087823061  0.00035975143
      4805         769   2012           0.00052545048  0.00018985353  1.2402344      0.0038491505   0.00087018894  0.00035994899
      4836         769   2012           0.0005263955   0.00019127616  1.2417843      0.003864972    0.0008525435   0.00036304971
      4867         769   2012           0.00052695577  0.00018881578  1.2433342      0.0038377326   0.00081413042  0.00037148883
      4898         769   2011           0.00052736767  0.00018589731  1.2448841      0.003852005    0.00078256298  0.00037610005
      4929         769   2011           0.00052788653  0.00018508934  1.246434       0.0038537293   0.00074103846  0.00039160932
      4960         769   2011           0.00052872183  0.00018653148  1.2479839      0.00382208     0.00078278396  0.00038389625
      4991         769   2011           0.00052976229  0.00018361503  1.2495338      0.003871437    0.0008679343   0.00040736343
      5022         769   2011           0.00053010511  0.00018282336  1.2510837      0.0038536749   0.00069445014  0.00040404105
      5053         769   2010           0.00053020977  0.00018287412  1.2526336      0.0038514006   0.0008324291   0.00040458356
      5084         769   2009           0.00053066615  0.00018187175  1.2541835      0.0038760787   0.00086796891  0.0004085157 
      5115         769   2008           0.00053014773  0.00018420113  1.2557334      0.0038519969   0.0007384258   0.00040096853
      5146         769   2008           0.0005308722   0.00018522981  1.2572833      0.0038799842   0.00086282581  0.00040315363
      5177         769   2007           0.00053048184  0.00018487451  1.2588332      0.0038486621   0.00095305588  0.00039950433
      5208         769   2008           0.00053089953  0.00018466792  1.2603831      0.0038474672   0.0009263303   0.00039579989
      5239         769   2007           0.00053136332  0.00018332939  1.261933       0.0038733251   0.00090031471  0.00041048948
      5270         769   2007           0.00053163638  0.00018302583  1.2634829      0.0038495989   0.00079673521  0.00041555671
      5301         769   2007           0.00053171299  0.00018514141  1.2650328      0.0038901273   0.00079568715  0.00040962272
      5332         769   2007           0.00053272305  0.00018164351  1.2665827      0.0038261335   0.00079928441  0.00042866628
      5363         769   2008           0.00053398732  0.00018156979  1.2681326      0.0038797134   0.00084155318  0.00042570945
      5394         769   2008           0.00053478625  0.00017956745  1.2696825      0.0038882928   0.00074761168  0.00043879724
      5425         769   2008           0.00053540666  0.00017890779  1.2712324      0.0038926941   0.0007474079   0.00044657945
      5456         769   2008           0.00053629841  0.00017911917  1.2727823      0.0038619972   0.00079298406  0.00043846838
      5487         769   2008           0.00053686025  0.00017760312  1.2743322      0.0038688412   0.00084154296  0.00044590334
      5518         769   2007           0.00053645582  0.00018022114  1.2758821      0.0038622989   0.00083490582  0.00043785724
      5549         769   2006           0.00053741862  0.00017790492  1.277432       0.0038741147   0.00086265323  0.00045633211
      5580         769   2006           0.00053762891  0.000177752    1.2789819      0.0038817345   0.0010505021   0.00045679055
      5611         769   2005           0.00053840913  0.00017727283  1.2805318      0.0038783022   0.0010144071   0.00045735842
      5642         769   2002           0.00053868713  0.0001767142   1.2820817      0.0038270062   0.00080905589  0.00046462087
      5673         769   2003           0.00053889557  0.00017912245  1.2836316      0.00385543     0.00083132128  0.00045268155
      5704         769   2003           0.0005397612   0.0001769098   1.2851815      0.0038726127   0.00073662631  0.00047005998
      5735         769   2000           0.0005398648   0.0001762797   1.2867314      0.0038802773   0.0008589122   0.00047818359
      5766         769   2000           0.00054009281  0.00017552793  1.2882813      0.0038613596   0.00075564921  0.00047587287
      5797         769   2000           0.0005412804   0.00017478067  1.2898312      0.0038672965   0.00088932018  0.00047901429
      5828         769   2000           0.00054255272  0.00017457612  1.2913811      0.0039071012   0.00085783574  0.00049250433
      5859         769   2000           0.00054280005  0.00017565529  1.292931       0.0038808919   0.00078051237  0.00048322881
      5890         769   2000           0.00054349939  0.00017464508  1.2944809      0.0038877376   0.00078346366  0.00048606553
      5921         769   2001           0.0005448203   0.00017089473  1.2960308      0.0038938427   0.00087505451  0.00050519383
      5952         769   2002           0.00054624433  0.00017299475  1.2975807      0.0038976055   0.00082831391  0.00050395162
      5983         769   2002           0.0005463045   0.00017063817  1.2991306      0.0038792384   0.00074831945  0.00051420611
      6014         769   2002           0.0005479127   0.00016976881  1.3006805      0.0039003657   0.00088203495  0.00052052068
      6045         769   2002           0.00054813179  0.0001700056   1.3022304      0.0038995452   0.00068690861  0.00052719026
      6076         769   2002           0.00054889872  0.00016894755  1.3037803      0.0038703799   0.00085756422  0.00052470384
      6107         769   2002           0.00054926193  0.00017010704  1.3053302      0.0038926511   0.00090031899  0.00052966933
      6138         769   2002           0.00055052449  0.0001723346   1.3068801      0.0038943059   0.00084121229  0.00052140424
      6169         769   2000           0.00055075562  0.00016727136  1.30843        0.0039057668   0.00082571931  0.00053860307
      6200         769   1999           0.0005496281   0.00016791713  1.3099799      0.003914218    0.00083706423  0.00053262915
      6231         769   1999           0.0005499897   0.00016863993  1.3115298      0.0038901594   0.00087002913  0.00053687457
      6262         769   1998           0.00055049265  0.00017024747  1.3130797      0.0038942475   0.00090440761  0.00053747851
      6293         769   1998           0.00055103912  0.00016887604  1.3146296      0.0038886752   0.00078498481  0.00054417498
      6324         769   1998           0.00055233566  0.00016822364  1.3161795      0.0039131504   0.0007919609   0.00054260503
      6355         769   1998           0.00055275772  0.00016564509  1.3177294      0.0039362603   0.00084154191  0.00055303613
      6386         769   1996           0.00055285533  0.00016759038  1.3192793      0.003919446    0.00089640657  0.00055694959
      6417         769   1995           0.00055322686  0.00017002759  1.3208292      0.0038947692   0.00098714075  0.00054738553
      6448         769   1994           0.00055321396  0.00016737355  1.3223791      0.0039177493   0.00077013785  0.00055615645
      6479         769   1994           0.00055413627  0.00016711061  1.323929       0.003904627    0.00092917487  0.00055365847
      6510         769   1994           0.00055524138  0.00016589853  1.3254789      0.0039258915   0.00081694935  0.00056646577
      6541         769   1994           0.00055587481  0.00016631562  1.3270288      0.0039119566   0.00084263596  0.00056652133
      6572         769   1994           0.00055680973  0.00016400487  1.3285787      0.0039046317   0.00074620507  0.00058046803
      6603         769   1994           0.00055773527  0.00016668947  1.3301286      0.0039119389   0.00085484024  0.00057052256
      6634         769   1993           0.00055818064  0.00016397578  1.3316785      0.0039160509   0.00070327068  0.00058851047
      6665         769   1991           0.00055777866  0.00016716124  1.3332284      0.0038998676   0.00080874992  0.00057060857
      6696         769   1990           0.00055849909  0.00016476658  1.3347783      0.0039395429   0.00082621967  0.00058447674
      6727         769   1990           0.0005592853   0.00016393833  1.3363282      0.0038954783   0.00071735037  0.00058753322
      6758         769   1989           0.00056017768  0.00016200579  1.3378781      0.003891313    0.00085760233  0.00060068687
      6789         769   1989           0.00056093561  0.00016165873  1.339428       0.0038765359   0.00083671663  0.00060475499
      6820         769   1988           0.00056123904  0.00016440498  1.3409779      0.0039051244   0.00079467903  0.00059493502
      6851         769   1989           0.00056173958  0.000161726    1.3425278      0.0038790319   0.00076891346  0.00060862434
      6882         769   1989           0.00056247403  0.00016301472  1.3440777      0.0038886712   0.00079387544  0.00061050206
      6913         769   1989           0.00056285845  0.00016218548  1.3456276      0.0039240459   0.00088815594  0.00061434919
      6944         769   1989           0.0005640358   0.00016409122  1.3471775      0.0039100306   0.0007451008   0.00061391793
      6975         769   1989           0.00056479262  0.00015989679  1.3487274      0.0039496338   0.0008914178   0.00062492684
      7006         769   1988           0.00056507952  0.00015969459  1.3502773      0.0039189845   0.00073758243  0.00063417778
      7037         769   1987           0.00056546916  0.00016313462  1.3518272      0.0038964937   0.00072682836  0.000623348  
      7068         769   1987           0.00056580064  0.00015836259  1.3533771      0.0039083604   0.00074531528  0.00063960921
      7099         769   1987           0.00056654252  0.00016167464  1.354927       0.0039195971   0.0007092963   0.00062501668
      7130         769   1987           0.00056726606  0.00015700373  1.3564769      0.0039182738   0.00083142761  0.00064558722
      7161         769   1987           0.00056815877  0.00015895725  1.3580268      0.0039238657   0.00086842908  0.00064927035
      7192         769   1988           0.0005692845   0.00015820011  1.3595767      0.0039190341   0.00062078571  0.00065176781
      7223         769   1987           0.00056978694  0.00015930862  1.3611266      0.0039206909   0.00081158259  0.00065525408
      7254         769   1987           0.00057061546  0.00015931931  1.3626765      0.0039295427   0.00077480038  0.00065648339
      7285         769   1988           0.00057136726  0.00015972582  1.3642264      0.0039007083   0.00079411693  0.00065902026
      7316         769   1988           0.0005719641   0.00015965569  1.3657763      0.0039514331   0.00079555182  0.00065923741
      7347         769   1988           0.00057238495  0.00015837675  1.3673262      0.0038824907   0.00076212691  0.0006603767 
      7378         769   1988           0.0005737515   0.00015972366  1.3688761      0.0039281681   0.00076401368  0.0006660994 
      7409         769   1988           0.00057456513  0.00015970972  1.370426       0.0039137966   0.00069548681  0.00066693194
      7440         769   1989           0.00057561064  0.00015656693  1.3719759      0.0039379332   0.000725162    0.00067683492
      7471         769   1989           0.00057614358  0.00015608805  1.3735258      0.0039108927   0.00073910315  0.00068849427
      7502         769   1989           0.00057760975  0.00015509372  1.3750757      0.0039509045   0.00070431141  0.00069090407
      7533         769   1988           0.00057770434  0.0001557107   1.3766256      0.0038937181   0.0006791683   0.00068689667
      7564         769   1988           0.000578721    0.00015485863  1.3781755      0.0039297713   0.00093353356  0.00069679731
      7595         769   1988           0.00057922322  0.00015585185  1.3797254      0.0038963635   0.00078033364  0.0006982493 
      7626         769   1986           0.00058000466  0.00015229435  1.3812753      0.0039426404   0.00085999386  0.00071393046
      7657         769   1985           0.0005804877   0.00015553034  1.3828252      0.0039484259   0.00077208716  0.00071032676
      7688         769   1984           0.00058124893  0.00015307011  1.3843751      0.0039169937   0.000961267    0.00072202327
      7719         769   1984           0.00058199131  0.00015350086  1.385925       0.0039279339   0.00078797321  0.00072101316
      7750         769   1984           0.00058284087  0.00015315054  1.3874749      0.0039277831   0.00077050213  0.00072157011
      7781         769   1986           0.00058450983  0.0001539994   1.3890248      0.0039241908   0.00075695482  0.0007232142 
      7812         769   1985           0.00058536182  0.00015341555  1.3905747      0.0039427769   0.00071247231  0.00072952526
      7843         769   1985           0.00058601133  0.00015294068  1.3921246      0.0039424575   0.00079961268  0.00073352792
      7874         769   1984           0.00058643332  0.00015321426  1.3936745      0.0039067689   0.00080603297  0.0007368423 
      7905         769   1984           0.00058689685  0.00014892148  1.3952244      0.0039400563   0.00077800721  0.00075586417
      7936         769   1984           0.00058753028  0.00015112253  1.3967743      0.0039513944   0.00069601158  0.00074664746
      7967         769   1984           0.00058831097  0.00014795205  1.3983242      0.0039318032   0.00080809833  0.00076332738
      7998         769   1982           0.00058818371  0.00015034711  1.3998741      0.0039475901   0.00078856629  0.00075789465
      8029         769   1982           0.00058917054  0.00015234576  1.401424       0.0039425265   0.00081658295  0.0007551614 
      8060         769   1982           0.00058966813  0.00014692181  1.4029739      0.0039025174   0.00086653831  0.00077676488
      8091         769   1981           0.0005902581   0.00014989912  1.4045238      0.0039385313   0.00094161417  0.00077075389
      8122         769   1981           0.00059047058  0.00015060952  1.4060737      0.0039298769   0.0008434564   0.00076239023
      8153         769   1981           0.00059153374  0.00015283641  1.4076236      0.0039078886   0.00078012624  0.0007657461 
      8184         769   1979           0.0005922386   0.00015037388  1.4091735      0.0039307213   0.00076356372  0.00076878705
      8215         769   1979           0.00059283668  0.00015080906  1.4107234      0.0039540954   0.00082357684  0.00077127211
      8246         769   1978           0.00059359817  0.00014988023  1.4122733      0.0039081137   0.00080280475  0.00078495269
      8277         769   1976           0.00059346227  0.00014823441  1.4138232      0.0039188259   0.00084081906  0.00078855424
      8308         769   1977           0.00059515572  0.00014445831  1.4153731      0.0039348196   0.00084986105  0.00080371133
      8339         769   1977           0.00059609863  0.00014893541  1.416923       0.0039044812   0.00088428273  0.00079347914
      8370         769   1978           0.00059706058  0.00014867024  1.4184729      0.0039261487   0.00082258381  0.00079313034
      8401         769   1979           0.00059838054  0.00014618983  1.4200228      0.0039144169   0.00092588444  0.00081153491
      8432         769   1979           0.00059889528  0.00014593313  1.4215727      0.0039455368   0.00071026975  0.0008090079 
      8463         769   1977           0.00060001982  0.00014304223  1.4231226      0.003920951    0.0008293334   0.00082658863
      8494         769   1977           0.00060077837  0.00014438989  1.4246725      0.0039227457   0.00075915092  0.00083171678
      8525         769   1977           0.00060212918  0.00014422434  1.4262224      0.0039254264   0.00082007932  0.00082887439
      8556         769   1978           0.00060294913  0.00014537253  1.4277723      0.0039631275   0.0009189985   0.00082754543
      8587         769   1978           0.00060439355  0.00014170791  1.4293222      0.003929465    0.00072397942  0.00084568444
      8618         769   1979           0.00060536029  0.00014461398  1.4308721      0.0039156958   0.00081862094  0.00084672583
      8649         769   1978           0.00060600591  0.00014512638  1.432422       0.0039443491   0.00082493883  0.00084327724
      8680         769   1978           0.00060706294  0.00014124746  1.4339719      0.0039469283   0.00074826148  0.00085404016
      8711         769   1978           0.00060801337  0.00014447443  1.4355218      0.0039143751   0.0009167275   0.00085296995
      8742         769   1977           0.00060824163  0.00014396798  1.4370717      0.0039316714   0.00071324545  0.00085455242
      8773         769   1978           0.00060903226  0.00014319667  1.4386216      0.0039300956   0.00069980578  0.00085906341
      8804         769   1979           0.0006102387   0.00014344001  1.4401715      0.0039297591   0.00069021586  0.00086701488
      8835         769   1979           0.00061115167  0.00014251478  1.4417214      0.0039375527   0.00078551469  0.00086708511
      8866         769   1979           0.00061157502  0.0001424659   1.4432713      0.0039489717   0.0007461487   0.00087521674
      8897         769   1979           0.00061105657  0.00014508685  1.4448212      0.0039248985   0.0008421568   0.00086288338
      8928         769   1980           0.00061219769  0.00014205452  1.4463711      0.0039142538   0.0009790569   0.00087164695
      8959         769   1980           0.00061317876  0.00014252621  1.447921       0.0039257176   0.0010028117   0.00086850946
      8990         769   1979           0.00061424045  0.00014303363  1.4494709      0.0039246159   0.00082287774  0.00088099496
      9021         769   1979           0.00061511376  0.00014470022  1.4510208      0.0038749322   0.00069235824  0.00087280529
      9052         769   1978           0.00061605641  0.00014235887  1.4525707      0.0039287569   0.00091268226  0.00088698468
      9083         769   1977           0.00061618295  0.0001414793   1.4541206      0.003902843    0.00084949403  0.00089042285
      9114         769   1977           0.00061698921  0.00014116864  1.4556705      0.0039095661   0.00078486789  0.00089263094
      9145         769   1977           0.0006175799   0.00014044868  1.4572204      0.0039645123   0.00080022571  0.00090074826
      9176         769   1977           0.000618407    0.00014112206  1.4587703      0.0039221399   0.00065383367  0.00089815896
      9207         769   1977           0.00061931036  0.00014423174  1.4603202      0.0039472271   0.00083581959  0.00089519798
      9238         769   1976           0.00062026232  0.00014243708  1.4618701      0.0039281599   0.00065757586  0.00090246762
      9269         769   1974           0.00062044157  0.00014170416  1.46342        0.0039232316   0.00082153642  0.00090387703
      9300         769   1973           0.00062113993  0.00014425461  1.4649699      0.0039397118   0.00073609291  0.00090477715
      9331         769   1973           0.00062200209  0.00014022702  1.4665198      0.0039393486   0.00072185903  0.00092268047
      9362         769   1972           0.00062230162  0.00013910247  1.4680697      0.0039229818   0.0011874589   0.00092736338
      9393         769   1972           0.00062304272  0.00013688036  1.4696196      0.003931617    0.00068658822  0.00093504323
      9424         769   1972           0.00062395693  0.00014196851  1.4711695      0.0039281985   0.00081570075  0.00092831856
      9455         769   1970           0.00062434365  0.00013812719  1.4727194      0.0039540575   0.00073781684  0.0009355661 
      9486         769   1970           0.00062492646  0.00013936744  1.4742693      0.0039431767   0.00070643583  0.00093845765
      9517         769   1970           0.0006263847   0.00013874964  1.4758192      0.0039466117   0.00077857876  0.00094629749
      9548         769   1970           0.00062645632  0.00013895551  1.4773691      0.0039119522   0.00073742796  0.00094220996
      9579         769   1969           0.00062760083  0.00013806497  1.478919       0.0039513141   0.0007003865   0.00095084627
      9610         769   1969           0.00062860086  0.00014069398  1.4804689      0.003922241    0.00078200857  0.00094868361
      9641         769   1969           0.00062955595  0.00013948156  1.4820187      0.0039300989   0.00094924884  0.00094657154
      9672         769   1968           0.00063040245  0.00013573947  1.4835686      0.003931673    0.00083183296  0.00096365751
      9703         769   1967           0.00063022984  0.00013927593  1.4851185      0.0039389825   0.00080070055  0.00096025342
      9734         769   1966           0.0006311951   0.00014018094  1.4866684      0.0039429677   0.00070568779  0.00096165148
      9765         769   1966           0.00063230563  0.00013919358  1.4882183      0.0039310555   0.00072352417  0.00096957339
      9796         769   1966           0.00063357487  0.00013845374  1.4897682      0.0039258419   0.00072536317  0.00097837644
      9827         769   1966           0.00063400684  0.00013903935  1.4913181      0.0039689892   0.00072938953  0.00097978753
      9858         769   1964           0.00063452146  0.00013716297  1.492868       0.0039606355   0.00078289154  0.0009871686 
      9889         769   1964           0.00063525757  0.00013620585  1.4944179      0.003944105    0.00078102439  0.00099597254
      9920         769   1963           0.00063613828  0.00013666999  1.4959678      0.0039657747   0.00072047433  0.00099529755
      9951         769   1963           0.00063717312  0.00013572504  1.4975177      0.0039974237   0.00079154174  0.0010064217 
      9982         769   1962           0.00063715269  0.00013760824  1.4990676      0.0039762233   0.00072997484  0.0010017732 
     10013         769   1962           0.00063842967  0.000133323    1.5006175      0.0039758441   0.00072937197  0.001015065  
     10044         769   1961           0.00063927492  0.00013602525  1.5021674      0.0039605605   0.00078478914  0.0010081517 
     10075         769   1960           0.0006398046   0.00013519656  1.5037173      0.0039638377   0.00074294414  0.0010202476 
     10106         769   1960           0.00064115328  0.00013498765  1.5052672      0.0039598899   0.0008474397   0.0010209475 
     10137         769   1959           0.00064218254  0.00013572092  1.5068171      0.0039722727   0.00068167378  0.0010269679 
     10168         769   1959           0.00064281836  0.00013738231  1.508367       0.0039898598   0.00074032849  0.0010254757 
     10199         769   1959           0.00064450028  0.00013422704  1.5099169      0.0039745141   0.00095236944  0.001038152  
     10230         769   1957           0.0006433537   0.00013447337  1.5114668      0.0039663894   0.00077425537  0.0010380839 
     10261         769   1956           0.00064405728  0.00012959154  1.5130167      0.0039640941   0.00092064182  0.0010481168 
     10292         769   1955           0.00064365131  0.00013547693  1.5145666      0.0039821329   0.0012469428   0.0010287288 
     10323         769   1954           0.00064394467  0.0001290842   1.5161165      0.0039576951   0.00069540255  0.001050134  
     10354         769   1954           0.00064515091  0.0001320814   1.5176664      0.0039595693   0.00084335751  0.0010546845 
     10385         769   1955           0.00064680937  0.00013039014  1.5192163      0.0039838944   0.00089783658  0.0010613657 
     10416         769   1955           0.00064741292  0.00013304086  1.5207662      0.0039843181   0.00075968777  0.001056859  
     10447         769   1953           0.00064789675  0.0001308534   1.5223161      0.0039876671   0.00064448224  0.0010701063 
     10478         769   1953           0.00064827287  0.00013253558  1.523866       0.0039902251   0.0006518425   0.0010622727 
     10509         769   1953           0.00064966504  0.00013056357  1.5254159      0.0039605198   0.00088141726  0.0010757651 
     10540         769   1953           0.00065069022  0.0001336961   1.5269658      0.0039922277   0.00079155006  0.0010668373 
     10571         769   1953           0.00065166967  0.00013028636  1.5285157      0.0039858654   0.00076649841  0.0010846137 
     10602         769   1953           0.00065238647  0.00013218731  1.5300656      0.0039693214   0.00069649946  0.001083032  
     10633         769   1952           0.00065368257  0.00013182262  1.5316155      0.0040272896   0.00083418385  0.0010944594 
     10664         769   1952           0.00065457903  0.00013182094  1.5331654      0.0040024662   0.00083252386  0.0010971748 
     10695         769   1951           0.00065567701  0.00013221584  1.5347153      0.0040382299   0.00099230256  0.0011023506 
     10726         769   1951           0.00065693803  0.00012867435  1.5362652      0.0040014148   0.00066174908  0.0011131868 
     10757         769   1951           0.00065800122  0.00013069342  1.5378151      0.0039961171   0.0007180504   0.0011122752 
     10788         769   1951           0.00065897297  0.00013053243  1.539365       0.0040353073   0.00070178682  0.0011196136 
     10819         769   1951           0.00066041791  0.00012871859  1.5409149      0.0040334834   0.00082714754  0.0011302522 
     10850         769   1952           0.00066146508  0.00013001739  1.5424648      0.0040252276   0.00079266887  0.0011304635 
     10881         769   1951           0.00066178582  0.00012747337  1.5440147      0.0040521734   0.00071198266  0.0011351938 
     10912         769   1950           0.00066260002  0.00013079119  1.5455646      0.0040331027   0.00078029057  0.0011345954 
     10943         769   1949           0.00066341701  0.00013088039  1.5471145      0.0040053418   0.00082230277  0.0011360825 
     10974         769   1950           0.00066470438  0.00012770614  1.5486644      0.0040363488   0.00073796699  0.0011515603 
     11005         769   1950           0.000666334    0.00012849731  1.5502143      0.0040501009   0.00076651896  0.001153063  
     11036         769   1950           0.00066741317  0.0001287096   1.5517642      0.0040289624   0.00071237244  0.0011642104 
     11067         769   1948           0.00066550224  0.00013127422  1.5533141      0.003996613    0.00078136363  0.0011459975 
     11098         769   1947           0.00066594513  0.00013080233  1.554864       0.0040073947   0.00067075137  0.0011447781 
     11129         769   1947           0.00066711862  0.00012931402  1.5564139      0.0039938149   0.0010028674   0.0011575565 
     11160         769   1946           0.00066748389  0.00012624934  1.5579638      0.0040179476   0.00084960008  0.0011715517 
     11191         769   1946           0.00066835186  0.00012711627  1.5595137      0.0040065781   0.00075793951  0.0011675084 
     11222         769   1944           0.00066898446  0.00012576033  1.5610636      0.0040076949   0.00080389284  0.0011818814 
     11253         769   1943           0.00066956807  0.00012635351  1.5626135      0.0040159244   0.00080049655  0.0011761073 
     11284         769   1941           0.00067043801  0.00012531764  1.5641634      0.004009845    0.00074239501  0.0011913746 
     11315         769   1940           0.0006711112   0.00012505813  1.5657133      0.0040179133   0.0007958456   0.0011910491 
     11346         769   1941           0.0006729011   0.00012380245  1.5672632      0.0040241575   0.00076426535  0.0012058737 
     11377         769   1941           0.00067331941  0.0001293412   1.5688131      0.0040166771   0.00077178393  0.0011913866 
     11408         769   1941           0.00067491631  0.0001264546   1.570363       0.004020302    0.00083333065  0.0012034817 
     11439         769   1940           0.00067604827  0.0001279527   1.5719129      0.0040239272   0.00080000752  0.0012070303 
     11470         769   1939           0.00067658582  0.00012350704  1.5734628      0.0040275527   0.0006558447   0.0012264241 
     11501         769   1939           0.00067786721  0.00012687799  1.5750127      0.0040311785   0.00075609885  0.0012167365 
     11532         769   1938           0.00067806291  0.00012917222  1.5765626      0.0040348046   0.00080493966  0.0012159876 
     11563         769   1937           0.00067844325  0.00012527878  1.5781125      0.004038431    0.00089111399  0.0012306932 
     11594         769   1936           0.00067931594  0.0001246144   1.5796624      0.0040420577   0.00076973592  0.0012342483 
     11625         769   1936           0.00068057053  0.000128626    1.5812123      0.0040456848   0.00061234931  0.001223294  
     11656         769   1938           0.00068219691  0.00012686288  1.5827622      0.0040493121   0.00073788717  0.0012365263 
     11687         769   1939           0.00068361556  0.00012474346  1.5843121      0.0040529397   0.00090346382  0.0012497797 
     11718         769   1941           0.00068525857  0.0001263968   1.585862       0.0040565677   0.00076160477  0.0012493598 
     11749         769   1940           0.00068623806  0.0001251133   1.5874119      0.0040601959   0.00078803563  0.0012517886 
     11780         769   1940           0.00068708102  0.00012545165  1.5889618      0.0040638245   0.0007045825   0.0012687268 
     11811         769   1940           0.00068876385  0.00012284541  1.5905117      0.0040674533   0.00072744304  0.0012757254 
     11842         769   1939           0.00068932637  0.00012605202  1.5920616      0.0040710825   0.00076524617  0.0012612354 
     11873         769   1939           0.00069074757  0.00012470911  1.5936115      0.0040747119   0.00096074721  0.0012741506 
     11904         769   1939           0.00069189     0.00012487167  1.5951614      0.0040783416   0.00080782891  0.0012824536 
     11935         769   1938           0.00069261479  0.00012526354  1.5967113      0.0040819717   0.00083312752  0.001284833  
     11966         769   1938           0.0006943518   0.000121656    1.5982612      0.004085602    0.00081440052  0.0012989133 
     11997         769   1938           0.00069531997  0.00012375902  1.5998111      0.0040892326   0.00074021834  0.0012978468 
     12028         769   1937           0.00069550828  0.00012272895  1.601361       0.0040928635   0.00069224652  0.0013092522 
     12059         769   1937           0.00069662222  0.0001260673   1.6029109      0.0040964947   0.00079106346  0.001297942  
     12090         769   1937           0.00069786506  0.0001245381   1.6044608      0.0041001262   0.00087781367  0.0013091569 
     12121         769   1937           0.00069920407  0.00012408536  1.6060107      0.004103758    0.00068061666  0.0013132242 
     12152         769   1936           0.0007004168   0.00012746717  1.6075606      0.0041073901   0.0007521395   0.0013117662 
     12183         769   1936           0.00070160845  0.0001224884   1.6091105      0.0041110225   0.00069262574  0.0013326425 
     12214         769   1936           0.0007030104   0.00012436148  1.6106604      0.0041146551   0.0006227455   0.0013311645 
     12245         769   1937           0.00070451318  0.00012125016  1.6122103      0.0041182881   0.00073851359  0.0013486851 
     12276         769   1937           0.00070567522  0.00012309015  1.6137602      0.0041219213   0.00088362664  0.001351013  
     12307         769   1936           0.00070568505  0.00012212407  1.6153101      0.0040777409   0.0007974384   0.0013480888 
     12338         769   1935           0.00070614307  0.00012264158  1.61686        0.0040563333   0.0007418164   0.0013440278 
     12369         769   1935           0.00070720645  0.00012156136  1.6184099      0.0040834904   0.00073102264  0.0013601939 
     12400         769   1935           0.00070870311  0.00012185734  1.6199598      0.0040715608   0.0007024074   0.0013621368 
     12431         769   1934           0.00070895496  0.00012245276  1.6215097      0.0040693894   0.00057852623  0.0013682771 
     12462         769   1935           0.00071031181  0.00012376608  1.6230596      0.0040827198   0.00070241261  0.0013663712 
     12493         769   1935           0.00071165477  0.00012031088  1.6246095      0.0040732268   0.00070658851  0.0013765705 
     12524         769   1934           0.00071152156  0.00012372741  1.6261594      0.0040773379   0.00078770231  0.0013708906 
     12555         769   1934           0.00071264747  0.00012167302  1.6277093      0.0040996546   0.0011287793   0.0013803887 
     12586         769   1934           0.000713346    0.0001222589   1.6292592      0.0040880602   0.00074228621  0.0013878649 
     12617         769   1933           0.00071426842  0.00012119831  1.6308091      0.0040665521   0.0006274916   0.0013887336 
     12648         769   1933           0.0007162474   0.00012152263  1.632359       0.0041019329   0.00080299721  0.0014005233 
     12679         769   1933           0.00071721912  0.00012150658  1.6339089      0.0040998384   0.0006802773   0.0014065456 
     12710         769   1933           0.00071840235  0.00011977146  1.6354588      0.0040832566   0.0007276513   0.0014143701 
     12741         769   1933           0.00071968394  0.00012178495  1.6370087      0.0040852274   0.00071943192  0.0014128336 
     12772         769   1933           0.00072131542  0.000119396    1.6385586      0.0041090497   0.00084629371  0.0014250659 
     12803         769   1933           0.00072261343  0.00012011327  1.6401085      0.0040977307   0.00079929411  0.0014367319 
     12834         769   1933           0.00072407457  0.00012267213  1.6416584      0.0041045088   0.00077701032  0.0014234833 
     12865         769   1933           0.00072548111  0.00011890069  1.6432083      0.0040979395   0.00074685016  0.0014489603 
     12896         769   1931           0.00072569317  0.00011919393  1.6447582      0.0041094869   0.00080993143  0.001448782  
     12927         769   1931           0.00072625717  0.00012163025  1.6463081      0.0040891018   0.00075132845  0.0014432731 
     12958         769   1929           0.0007253871   0.00011910187  1.647858       0.0040059737   0.00071846651  0.0014477076 
     12989         769   1930           0.00072634129  0.00011977128  1.6494079      0.0040287314   0.00064336575  0.0014562022 
     13020         769   1929           0.00072708759  0.00012068041  1.6509578      0.0040140528   0.0008894157   0.001452804  
     13051         769   1929           0.00072758526  0.0001172599   1.6525077      0.004052178    0.00079046278  0.0014628551 
     13082         769   1929           0.00072952677  0.00011842373  1.6540576      0.0040072397   0.00090188675  0.001461897  
     13113         769   1929           0.00073003732  0.0001183127   1.6556075      0.0040219485   0.00083490079  0.0014696858 
     13144         769   1929           0.00073144144  0.00012000535  1.6571574      0.0040318286   0.00085744676  0.001470552  
     13175         769   1929           0.00073282737  0.000119441    1.6587073      0.0040291361   0.0007442297   0.0014760704 
     13206         769   1928           0.00073354544  0.00011901379  1.6602572      0.0040151523   0.00067100683  0.0014838308 
     13237         769   1928           0.00073494265  0.00012075254  1.6618071      0.0040526633   0.00077281781  0.0014855612 
     13268         769   1928           0.0007362808   0.00011882603  1.663357       0.0040179314   0.00070756014  0.0014927343 
     13299         769   1928           0.00073704201  0.00012031049  1.6649069      0.0040226812   0.00083420698  0.0015002081 
     13330         769   1927           0.00073861937  0.00011960232  1.6664568      0.004066566    0.00075483024  0.0015024683 
     13361         769   1927           0.00073957484  0.00011903517  1.6680067      0.0040381226   0.00082463039  0.0015082309 
     13392         769   1926           0.00074020506  0.00011857447  1.6695566      0.0040165307   0.00082741484  0.0015128084 
     13423         769   1925           0.00074132607  0.00011880728  1.6711065      0.0040504674   0.00081203881  0.0015199084 
     13454         769   1926           0.00074232724  0.00012078323  1.6726564      0.0040573322   0.00084961807  0.0015153687 
     13485         769   1925           0.00074266216  0.00011990782  1.6742063      0.0040554921   0.00075685537  0.0015089894 
     13516         769   1922           0.00074175343  0.00011758054  1.6757562      0.0040541836   0.00094312831  0.0015204485 
     13547         769   1922           0.00074316526  0.00011626424  1.6773061      0.0040495094   0.00077769986  0.0015334091 
     13578         769   1922           0.00074403154  0.00011553448  1.678856       0.0040450795   0.00068203294  0.0015458804 
     13609         769   1921           0.00074192696  0.00011746864  1.6804059      0.0040359471   0.00073754153  0.001527992  
     13640         769   1922           0.00074276092  0.00011922165  1.6819558      0.0040210834   0.00078482944  0.0015279722 
     13671         769   1921           0.00074281515  0.00011857928  1.6835057      0.0040357536   0.00071538002  0.0015226631 
     13702         769   1921           0.00074321834  0.00011663349  1.6850556      0.0040490626   0.00085699402  0.0015370218 
     13733         769   1922           0.00074492333  0.00011795536  1.6866055      0.004124821    0.00083116151  0.0015335974 
     13764         769   1920           0.0007434893   0.00011705169  1.6881554      0.0040324865   0.00073979955  0.0015333017 
     13795         769   1921           0.00074474686  0.00011768495  1.6897053      0.0040361872   0.001006148    0.0015380648 
     13826         769   1923           0.00074636133  0.00011849054  1.6912552      0.0040504102   0.00078716928  0.001539682  
     13857         769   1923           0.00074723223  0.00011972163  1.6928051      0.004049827    0.00067858826  0.0015482016 
     13888         769   1923           0.00074917182  0.00012035013  1.694355       0.0040618118   0.00073382755  0.0015461291 
     13919         769   1924           0.00075061116  0.00011844005  1.6959049      0.00405099     0.00078685892  0.001563621  
     13950         769   1925           0.00075176513  0.00012051023  1.6974548      0.0040546908   0.00082037659  0.0015553084 
     13981         769   1925           0.00075283506  0.000117461    1.6990047      0.0040583915   0.00070000984  0.0015665226 
     14012         769   1924           0.00075372987  0.00011637493  1.7005546      0.0040620922   0.00069972991  0.001581697  
     14043         769   1924           0.00075522127  0.00011702786  1.7021045      0.0040657929   0.0007167513   0.0015851114 
     14074         769   1922           0.00075371882  0.00011737401  1.7036544      0.0040694936   0.00088076905  0.0015810709 
     14105         769   1922           0.00075380074  0.00011812908  1.7052043      0.0040731943   0.00093134641  0.0015773053 
     14136         769   1923           0.00075515641  0.00011784459  1.7067542      0.0040768951   0.00087838421  0.0015772024 
     14167         769   1920           0.00075167881  0.00011958037  1.7083041      0.0040805958   0.0012232735   0.0015671924 
     14198         769   1918           0.00074931785  0.00012231402  1.709854       0.0040842965   0.0010521695   0.0015420274 
     14229         769   1917           0.0007498444   0.00011961161  1.7114039      0.0040879972   0.0011861626   0.0015583948 
     14260         769   1916           0.00074890468  0.00012040594  1.7129538      0.004091698    0.00084109281  0.0015482408 
     14291         769   1914           0.00074753028  0.00012036368  1.7145037      0.0040953987   0.0010717247   0.0015431574 
     14322         769   1914           0.00074829083  0.00012072506  1.7160536      0.0040990994   0.0010687414   0.0015461596 
     14353         769   1913           0.00074778395  0.00011624855  1.7176035      0.0041028001   0.0010593151   0.0015560462 
     14384         769   1913           0.00074928516  0.00011905055  1.7191534      0.0041065009   0.00093941546  0.0015579524 
     14415         769   1913           0.00074996213  0.0001189522   1.7207033      0.0041102016   0.00091736187  0.0015603676 
     14446         769   1913           0.00075124806  0.00011792049  1.7222532      0.0041139023   0.00085479335  0.0015718004 
     14477         769   1912           0.00075157892  0.00011804642  1.7238031      0.0041176031   0.00073304041  0.00157208   
     14508         769   1910           0.00075051252  0.00011730484  1.725353       0.0040678187   0.00079205727  0.0015683837 
     14539         769   1908           0.00074906763  0.00011673635  1.7269029      0.0040458724   0.00080844272  0.001558815  
     14570         769   1907           0.00074895661  0.00012001974  1.7284528      0.004049022    0.0011984271   0.0015563744 
     14601         769   1906           0.00074983186  0.00011675033  1.7300027      0.0040536981   0.00085827802  0.0015667158 
     14632         769   1903           0.00074849483  0.00011882369  1.7315526      0.0040553223   0.00078608968  0.0015579542 
     14663         769   1901           0.00074668674  0.00011831355  1.7331025      0.0040900364   0.00087364808  0.0015505534 
     14694         769   1900           0.00074584998  0.00011833641  1.7346524      0.004087584    0.00092779432  0.0015516747 
     14725         769   1899           0.00074499887  0.00011769527  1.7362023      0.0040647756   0.001567445    0.0015458224 
     14756         769   1896           0.00073951419  0.00011657712  1.7377522      0.0040876986   0.00090849055  0.0015280037 
     14787         769   1896           0.00073854404  0.00011829364  1.7393021      0.0041138266   0.001561349    0.0015114257 
     14818         769   1896           0.00073879194  0.00011700649  1.740852       0.0041209164   0.0011383307   0.0015168157 
     14849         769   1893           0.00072929327  0.00011890268  1.7424019      0.0040773851   0.00088612139  0.0014630085 
     14880         769   1891           0.00071812955  0.0001271573   1.7439518      0.0040805384   0.0013993228   0.0013920579 
     14911         769   1890           0.00071296778  0.00012601613  1.7455017      0.0040836921   0.0013276713   0.0013644346 
     14942         769   1890           0.00070882014  0.00012789239  1.7470516      0.0040868461   0.0021612354   0.0013322863 
     14973         769   1890           0.00070610164  0.00012762076  1.7486015      0.0040900005   0.0011834515   0.0013311325 
     15004         769   1890           0.00070301435  0.00012681485  1.7501514      0.0040931552   0.0015371718   0.0013149887 
     15035         769   1891           0.00070241809  0.00012948792  1.7517013      0.0040963103   0.0010341344   0.0013124616 
     15066         769   1891           0.00070251694  0.00013027926  1.7532512      0.0040994658   0.0010983113   0.0013061817 
     15097         769   1890           0.00070029343  0.00012922915  1.7548011      0.0041026217   0.0012837248   0.001299763  
     15128         769   1890           0.00070106273  0.00012938238  1.756351       0.0041057779   0.0012404861   0.0013028695 
     15159         769   1889           0.00070177665  0.00012925421  1.7579009      0.0041089344   0.0010964281   0.001316761  
     15190         769   1889           0.00070302339  0.00012701252  1.7594508      0.0041120913   0.00092831084  0.0013231141 
     15221         769   1890           0.00070319504  0.00012887931  1.7610007      0.0041152486   0.00084957811  0.001328274  
     15252         769   1887           0.0007016534   0.00012823326  1.7625506      0.0041184062   0.0011878952   0.0013237594 
     15283         769   1884           0.00069752354  0.00012851419  1.7641005      0.0041215642   0.0017486297   0.001301046  
     15314         769   1882           0.00068712273  0.00013114506  1.7656504      0.0041247226   0.0010088559   0.0012407209 
     15345         769   1879           0.00067598355  0.00012982091  1.7672003      0.0040752144   0.00087577698  0.0011947587 
     15376         769   1877           0.00066494473  0.00013301489  1.7687502      0.0040552493   0.0012971621   0.0011418168 
     15407         769   1874           0.00065116726  0.00013925958  1.7703001      0.0041016663   0.0015747001   0.0010564243 
     15438         769   1873           0.00064010304  0.00014309283  1.77185        0.0041008676   0.0013821765   0.00099600644
     15469         769   1874           0.00063269004  0.00014417505  1.7733999      0.0040926463   0.0011450708   0.00097270016
     15500         769   1871           0.00061819693  0.00014995203  1.7749498      0.0040556185   0.0010688331   0.00088418661
     15531         769   1870           0.00061007876  0.00015193615  1.7764997      0.0040524408   0.0013923357   0.00084300837
     15562         769   1867           0.00059941921  0.00015109728  1.7780496      0.0040807485   0.001457508    0.00080714466
     15593         769   1867           0.00059304829  0.00015479906  1.7795995      0.0041234162   0.0018336963   0.00076850377
     15624         769   1865           0.00058139366  0.00015192735  1.7811494      0.0040075348   0.0016708745   0.00073309693
     15655         769   1864           0.00057054268  0.00015195592  1.7826993      0.0040110203   0.0012772123   0.00068860359
     15686         769   1865           0.00056147097  0.00015915018  1.7842492      0.0040145058   0.0014532157   0.00063489139
     15717         769   1864           0.00055372021  0.0001587559   1.7857991      0.0040881012   0.0010489243   0.0005968319 
     15748         769   1864           0.00054717521  0.00016120346  1.787349       0.0040985087   0.0013106723   0.00057149167
     15779         769   1862           0.0005347069   0.0001608868   1.7888989      0.0040249621   0.0017531169   0.00051530773
     15810         769   1862           0.00052866498  0.00016291836  1.7904488      0.0040284476   0.0013485202   0.00046938805
     15841         769   1863           0.00052264223  0.00016607978  1.7919987      0.0040319331   0.0013824505   0.00043508123
     15872         769   1863           0.00051733129  0.00015980885  1.7935486      0.0040354186   0.0011505303   0.00044094923
     15903         769   1863           0.00051153286  0.00015924234  1.7950985      0.004038904    0.0012201594   0.00041982187
     15934         769   1863           0.00050704426  0.00016308569  1.7966484      0.0040423895   0.00085324343  0.00039412331
     15965         769   1861           0.0005010588   0.00016580025  1.7981983      0.004045875    0.0014548859   0.00036912582
     15996         769   1861           0.00049688033  0.00016200244  1.7997482      0.0040493605   0.0010003652   0.00036359496
     16027         769   1861           0.00049293802  0.000165437    1.8012981      0.0040528459   0.0010105766   0.00033409956
     16058         769   1861           0.0004894789   0.00016613485  1.8028479      0.0040563314   0.00086723904  0.00031386649
     16089         769   1860           0.0004854155   0.0001675945   1.8043978      0.0040598169   0.0010298267   0.00028607463
     16120         769   1860           0.00048196689  0.00017179895  1.8059477      0.0040633024   0.00094353     0.00027218347
     16151         769   1859           0.00047936439  0.00016918213  1.8074976      0.0040667879   0.0010071071   0.00026315456
     16182         769   1858           0.00047625787  0.00017762903  1.8090475      0.0040702733   0.0010538336   0.00022711016
     16213         769   1858           0.00047379958  0.0001768228   1.8105974      0.0040737588   0.00082866295  0.00022565343
     16244         769   1859           0.00047128753  0.00018078554  1.8121473      0.0040772443   0.00094359869  0.0002037356 
     16275         769   1857           0.00046895536  0.00018364887  1.8136972      0.0040807298   0.00088887627  0.00018573293
     16306         769   1857           0.00046698682  0.00018664198  1.8152471      0.0040842153   0.00087326793  0.00017105316
     16337         769   1856           0.00046612316  0.00018411428  1.816797       0.0040877008   0.00080468365  0.00017891754
     16368         769   1856           0.00046418734  0.0001889462   1.8183469      0.0040911863   0.00088062862  0.00016150782
     16399         769   1856           0.00046327568  0.00018944425  1.8198968      0.0040946718   0.00086095197  0.00015685382
     16430         769   1857           0.00046314748  0.00018815543  1.8214467      0.0040981573   0.00080749083  0.00015823364
     16461         769   1856           0.0004624619   0.00019118375  1.8229966      0.0041016428   0.00078852244  0.00013566215
     16492         769   1856           0.00046206492  0.00018904933  1.8245465      0.0041051283   0.0009549154   0.00014865022
     16523         769   1855           0.00046092313  0.00019140287  1.8260964      0.0041086138   0.000792051    0.00013635468
     16554         769   1855           0.00046075423  0.00019085583  1.8276463      0.0041120993   0.00081934296  0.00012798251
     16585         769   1855           0.00046148288  0.00018949108  1.8291962      0.0041155848   0.0008381729   0.00012424132
     16616         769   1854           0.00046116845  0.0001895953   1.8307461      0.0041190703   0.00079293331  0.00012719937
     16647         769   1853           0.00046094163  0.00019100304  1.832296       0.0041225558   0.00085821429  0.00012291633
     16678         769   1852           0.00045954215  0.00018824565  1.8338459      0.0040560621   0.00082587706  0.00012014493
     16709         769   1851           0.0004593557   0.00019115687  1.8353958      0.0040590905   0.00078942802  0.00010715715
     16740         769   1852           0.00045976121  0.00019099945  1.8369457      0.0040621191   0.00097804885  0.00011894558
     16771         769   1852           0.0004595497   0.00019129175  1.8384956      0.0040651481   0.00081294778  0.00011326431
     16802         769   1851           0.00045911346  0.00018992373  1.8400455      0.0040681774   0.00089458101  0.00011505679
     16833         769   1851           0.0004592092   0.00018878705  1.8415954      0.0040712069   0.0009486468   0.00011978577
     16864         769   1852           0.00046032084  0.0001890451   1.8431453      0.0040742368   0.00082872516  0.00011896595
     16895         769   1854           0.00046004193  0.00018738166  1.8446952      0.0040772669   0.00082737537  0.00012526808
     16926         769   1854           0.00046035264  0.00018954063  1.8462451      0.0040802973   0.00092720731  0.00012114285
     16957         769   1855           0.00046057228  0.00018886295  1.847795       0.0040833281   0.00076870483  0.00012227567
     16988         769   1853           0.00046040915  0.00018738038  1.8493449      0.0040863591   0.00077207717  0.00012189604
     17019         769   1853           0.00045982236  0.00019165131  1.8508948      0.0040893904   0.00097125591  0.00011164711
     17050         769   1853           0.00046046755  0.00018759928  1.8524447      0.004092422    0.0008096174   0.00012365752
     17081         769   1853           0.00046034167  0.00019093423  1.8539946      0.0040954539   0.00094231485  0.00011616306
     17112         769   1852           0.00046068168  0.00018922869  1.8555445      0.0040984861   0.0007604916   0.00012833551
     17143         769   1852           0.0004605798   0.00019251538  1.8570944      0.0041015186   0.00081328449  0.00010987556
     17174         769   1849           0.00046066714  0.00018880913  1.8586443      0.0041045514   0.00091661371  0.00012499064
     17205         769   1847           0.00046029002  0.00019037164  1.8601942      0.0041075844   0.00083505128  0.00012363676
     17236         769   1848           0.00046094718  0.00019062708  1.8617441      0.0041106178   0.00099834411  0.00012124181
     17267         769   1848           0.00046104692  0.00018925997  1.863294       0.0041136514   0.00086277711  0.00013143481
     17298         769   1848           0.00046096538  0.00018876405  1.8648439      0.0041166853   0.0010001762   0.00013863551
     17329         769   1849           0.00046180711  0.00018881241  1.8663938      0.0041197195   0.00085671829  0.00013874104
     17360         769   1847           0.0004611478   0.00018781026  1.8679437      0.004122754    0.00086669765  0.00013736843
     17391         769   1846           0.00045974561  0.00018826411  1.8694936      0.0040461945   0.00090755255  0.00012580494
     17422         769   1846           0.00045982567  0.00018837537  1.8710435      0.004048652    0.00086723513  0.00013172339
     17453         769   1846           0.00046012972  0.00018714009  1.8725934      0.0040511101   0.00096891012  0.00013688069
     17484         769   1846           0.00046062691  0.00018682777  1.8741433      0.0040535687   0.00080647572  0.00013561128
     17515         769   1847           0.00046056357  0.00019038169  1.8756932      0.0040560279   0.00097536753  0.00012709644
     17546         769   1849           0.00046129355  0.0001885998   1.8772431      0.0040584876   0.00089042569  0.00012887481
     17577         769   1847           0.00046086384  0.0001892527   1.878793       0.0040609478   0.00094022708  0.00012603851
     17608         769   1847           0.00046068511  0.00018741011  1.8803429      0.0040634086   0.00085162243  0.00013817514
     17639         769   1845           0.00046074381  0.00018515404  1.8818928      0.0040658699   0.00075622687  0.00014896385
     17670         769   1845           0.00046070737  0.00018750937  1.8834427      0.0040683318   0.00090021942  0.00014243783
     17701         769   1845           0.00046097066  0.00018649814  1.8849926      0.0040707941   0.00078895303  0.00014677291
     17732         769   1845           0.00046108694  0.00018410663  1.8865425      0.0040732571   0.00078779484  0.00015773061
     17763         769   1845           0.00046137048  0.00018472861  1.8880924      0.0040757205   0.00098277038  0.00014672276
     17794         769   1843           0.00046096598  0.00018521566  1.8896423      0.0040781845   0.0010240391   0.00015003246
     17825         769   1842           0.00046040752  0.00018530038  1.8911922      0.004080649    0.00079542514  0.00014321155
     17856         769   1841           0.0004602118   0.00018522039  1.8927421      0.0040831141   0.00083417183  0.00014810962
     17887         769   1841           0.00046059675  0.00018709518  1.894292       0.0040855797   0.00077309496  0.00014250162
     17918         769   1841           0.00046069343  0.00018619279  1.8958419      0.0040880458   0.0008053009   0.00014536456
     17949         769   1840           0.00046027478  0.00018630238  1.8973918      0.0040905124   0.00090616867  0.0001397398 
     17980         769   1840           0.00046049353  0.0001887763   1.8989417      0.0040929796   0.00088823194  0.000138848  
     18011         769   1840           0.00046059919  0.00018589687  1.9004916      0.0040954473   0.00081596661  0.00015068648
     18042         769   1840           0.00046093709  0.00018324089  1.9020415      0.0040979155   0.00090509167  0.00015746607
     18073         769   1840           0.00046105742  0.00018626597  1.9035914      0.0041003843   0.00081331377  0.00014877674
     18104         769   1840           0.00046088371  0.00018811976  1.9051413      0.0041028535   0.00084933134  0.00014141189
     18135         769   1840           0.00046102405  0.00018773072  1.9066912      0.0041053233   0.00081129618  0.00014330399
     18166         769   1840           0.00046104502  0.00018727577  1.9082411      0.0041077936   0.00098342207  0.00013896874
     18197         769   1840           0.00046147097  0.00018316715  1.909791       0.0041102645   0.00080233619  0.00015289356
     18228         769   1840           0.00046153473  0.00018244596  1.9113409      0.0041127358   0.0008706867   0.00016064305
     18259         769   1840           0.00046188891  0.00018461717  1.9128908      0.0041152077   0.00084688567  0.00015157704
     18290         769   1840           0.00046191665  0.00018593055  1.9144407      0.0041176801   0.00096759589  0.00015153715
     18321         769   1841           0.00046192298  0.0001842979   1.9159906      0.004120153    0.00080523286  0.00015230357
     18352         769   1841           0.00046213621  0.00018721773  1.9175405      0.0041226264   0.00079037278  0.00014126882
     18383         769   1839           0.00046120964  0.00018589152  1.9190904      0.0041251003   0.00096567245  0.00014482103
     18414         769   1838           0.0004598195   0.00018599962  1.9206403      0.0040838576   0.001047821    0.0001395119 
     18445         769   1838           0.00046009225  0.00018517676  1.9221902      0.0040864829   0.00083476418  0.00014228639
     18476         769   1838           0.00045975318  0.00018668257  1.9237401      0.0040891085   0.00085298043  0.00014084275
     18507         769   1838           0.00045964805  0.00018618102  1.92529        0.0040917346   0.00092512004  0.00014310154
     18538         769   1838           0.00045969855  0.00018659233  1.9268399      0.0040943612   0.00082061526  0.00014027427
     18569         769   1838           0.00045985584  0.0001845912   1.9283898      0.0040969881   0.0010077155   0.00014107766
     18600         769   1838           0.0004598043   0.00018430365  1.9299397      0.0040996155   0.00096929235  0.00014366779
     18631         769   1838           0.00045983177  0.00018787237  1.9314896      0.0041022433   0.00089353292  0.00013762015
     18662         769   1839           0.00046048849  0.00018495932  1.9330395      0.0041048716   0.00082825795  0.00014485148
     18693         769   1839           0.00046045947  0.00018228028  1.9345894      0.0041075002   0.00091520708  0.0001574791 
     18724         769   1839           0.00046024347  0.00018550902  1.9361393      0.0041101293   0.0008873451   0.00014223284
     18755         769   1839           0.00046058099  0.00018412108  1.9376892      0.0041127588   0.00095267607  0.00014706788
     18786         769   1839           0.00046079715  0.00018779055  1.9392391      0.0041153888   0.00089276974  0.00014226759
     18817         769   1839           0.0004611363   0.0001841154   1.940789       0.0041180191   0.00077647671  0.00014152683
     18848         769   1840           0.00046160805  0.00018438877  1.9423389      0.0041206499   0.00086929073  0.00014639374
     18879         769   1841           0.00046159185  0.00018660551  1.9438888      0.0041232811   0.00085756076  0.0001447771 
     18910         769   1839           0.00045977604  0.00018780771  1.9454387      0.0040922526   0.00074831886  0.00013648205
     18941         769   1840           0.00046021472  0.00018787166  1.9469886      0.0040949619   0.00078468663  0.00013050485
     18972         769   1839           0.00045989062  0.00018457334  1.9485385      0.0040976716   0.00092276857  0.0001479005 
     19003         769   1839           0.00045998088  0.00018368106  1.9500884      0.0041003817   0.00080546925  0.00014937658
     19034         769   1839           0.000459652    0.00018565785  1.9516383      0.0041030921   0.00079296593  0.00014099783
     19065         769   1838           0.00045946713  0.00018168915  1.9531882      0.0041058028   0.00079167181  0.00015092443
     19096         769   1838           0.00045950808  0.00018330355  1.9547381      0.0041085139   0.00077833843  0.00014462927
     19127         769   1839           0.00045998586  0.00018266762  1.956288       0.0041112254   0.00096487175  0.00015136825
     19158         769   1840           0.00046047404  0.0001861007   1.9578379      0.0041139373   0.00084535599  0.00013960908
     19189         769   1841           0.00046058468  0.00018553513  1.9593878      0.0041166495   0.00097503385  0.0001416054 
     19220         769   1841           0.00046068751  0.00018399048  1.9609377      0.004119362    0.00094658665  0.00015022488
     19251         769   1842           0.00046070627  0.00018754319  1.9624876      0.0041220749   0.00089150304  0.00013751476
     19282         769   1842           0.00046077923  0.00018577411  1.9640375      0.0041247882   0.00080932558  0.00014358723
     19313         769   1841           0.00045923207  0.00018652459  1.9655874      0.0039753525   0.00084114313  0.00013508989
     19344         769   1841           0.00045949445  0.00018539345  1.9671373      0.0039777569   0.00082551682  0.00013687739
     19375         769   1842           0.00045995165  0.00018798575  1.9686872      0.003997968    0.00084405334  0.00013001833
     19406         769   1842           0.00045963477  0.0001846541   1.9702371      0.0039841611   0.00091747742  0.00014505148
     19437         769   1842           0.00046027914  0.00018644769  1.971787       0.0039849725   0.00081274377  0.00014446452
     19468         769   1843           0.00046002234  0.00018618873  1.9733369      0.003991602    0.00080875901  0.00013727363
     19499         769   1841           0.00046039114  0.00018557059  1.9748868      0.0039897852   0.00094665176  0.0001468169 
     19530         769   1842           0.00046009874  0.00018515502  1.9764367      0.0039921921   0.00087168808  0.00015275249
     19561         769   1842           0.00046040752  0.0001858151   1.9779866      0.0039945995   0.00084826408  0.00013767561
     19592         769   1842           0.00046008095  0.0001880193   1.9795365      0.0040000227   0.00078268344  0.00012770959
     19623         769   1842           0.00046025427  0.00018570078  1.9810864      0.0039999502   0.00088145044  0.00014368604
     19654         769   1842           0.00046016771  0.00018705504  1.9826363      0.0040018244   0.00091503509  0.00013299323
     19685         769   1842           0.00045986933  0.00018369834  1.9841862      0.0040042335   0.00074413562  0.00015662518
     19716         769   1843           0.0004608064   0.00018523252  1.9857361      0.0040066431   0.00088169942  0.00014399234
     19747         769   1843           0.00046119776  0.00018161091  1.987286       0.0040090531   0.00095516281  0.00015951172
     19778         769   1842           0.00046047775  0.0001835204   1.9888359      0.0040114635   0.00091369704  0.00014862707
     19809         769   1841           0.00046017341  0.00018500158  1.9903858      0.0040138744   0.00084911723  0.00014454965
     19840         769   1841           0.00045959268  0.0001865219   1.9919357      0.0040162857   0.00090974951  0.00013739235
     19871         769   1841           0.00046041168  0.00018301246  1.9934856      0.0040186974   0.0007444632   0.00015056847
     19902         769   1841           0.00046033242  0.00018415765  1.9950355      0.0040211096   0.00083821775  0.00014215639
     19933         769   1840           0.00045955203  0.0001871994   1.9965854      0.0040235222   0.00086211257  0.00013896854
     19964         769   1841           0.00045983956  0.00018661947  1.9981353      0.0040259352   0.00092369284  0.00013668639
     19995         769   1842           0.00046031619  0.00018232135  1.9996852      0.0040283486   0.00081701804  0.00015447429
     20026         769   1843           0.00046033917  0.000184268    2.0012351      0.0040307625   0.00079386769  0.00014847111
     20057         769   1843           0.00046050309  0.00018365302  2.002785       0.0040331767   0.00093055608  0.00015387801
     20088         769   1842           0.0004602362   0.00018478173  2.0043349      0.0040355914   0.00084571497  0.00014996136
     20119         769   1842           0.00046026499  0.00018700743  2.0058848      0.0040380066   0.00098458068  0.00014147645
     20150         769   1842           0.00046002145  0.00018444465  2.0074347      0.0040404221   0.0009015944   0.00014974522
     20181         769   1842           0.00045996141  0.00018996152  2.0089846      0.0040428381   0.00085695567  0.0001335501 
     20212         769   1841           0.00045926536  0.00018445995  2.0105345      0.0040452545   0.00071784125  0.00014401994
     20243         769   1839           0.00045849347  0.00018438095  2.0120844      0.0040476713   0.00082365399  0.00014356254
     20274         769   1841           0.00045848975  0.00018228171  2.0136343      0.0040500885   0.00082683955  0.00014818439
     20305         769   1840           0.00045813677  0.00018329366  2.0151842      0.0040525061   0.00089086475  0.00015339355
     20336         769   1841           0.00045855123  0.00018502138  2.0167341      0.0040549242   0.00083025699  0.00014373243
     20367         769   1843           0.00045920613  0.00018486991  2.018284       0.0040573427   0.00081586333  0.00014615617
     20398         769   1843           0.00045945655  0.00018344757  2.0198339      0.0040597616   0.00079064686  0.0001501753 
     20429         769   1844           0.00045925646  0.00018417637  2.0213838      0.0040621809   0.000814623    0.00014428538
     20460         769   1845           0.00045975532  0.00018577     2.0229337      0.0040646006   0.00092227544  0.00014459983
     20491         769   1844           0.00045906685  0.00018353985  2.0244836      0.0040670207   0.00088808144  0.00015084109
     20522         769   1845           0.0004595805   0.00018207003  2.0260335      0.0040694413   0.00089783455  0.00015380822
     20553         769   1847           0.00046054478  0.00018231161  2.0275834      0.0040718622   0.00084689122  0.00015944377
     20584         769   1847           0.00046083081  0.00018613278  2.0291333      0.0040742836   0.00076790053  0.00014893518
     20615         769   1847           0.00046078446  0.00018455602  2.0306832      0.0040767054   0.00092848174  0.00015590999
     20646         769   1847           0.00046041092  0.00018544672  2.0322331      0.0040791276   0.00080199375  0.00014574561
     20677         769   1848           0.00046081576  0.0001864806   2.033783       0.0040815502   0.00078551188  0.00014169039
     20708         769   1848           0.00046126926  0.00018439861  2.0353329      0.0040839732   0.00084267707  0.00015094481
     20739         769   1848           0.00046130314  0.00018162093  2.0368828      0.0040863966   0.00087418938  0.00016815641
     20770         769   1848           0.00046180671  0.00017953119  2.0384327      0.0040888204   0.0010058185   0.00017413878
     20801         769   1849           0.00046188661  0.00018207833  2.0399826      0.0040912447   0.00078566354  0.00016028705
     20832         769   1847           0.00046074543  0.00018334023  2.0415325      0.0040936693   0.00085790909  0.00015303327
     20863         769   1846           0.00046060268  0.00018428906  2.0430824      0.0040960943   0.00095597206  0.00015117883
     20894         769   1846           0.00046062911  0.00018254035  2.0446323      0.0040985198   0.0010069015   0.00015546016
     20925         769   1846           0.00046089356  0.00018430171  2.0461822      0.0041009456   0.00091000299  0.00015532923
     20956         769   1845           0.00046022349  0.00018287989  2.0477321      0.0041037426   0.00077705729  0.00015395546
     20987         769   1847           0.00046097679  0.000184121    2.049282       0.0041065715   0.0011210108   0.00015773966
     21018         769   1847           0.00046142445  0.000183604    2.0508319      0.0041094005   0.00099887557  0.00015793324
     21049         769   1847           0.00046121713  0.00018622771  2.0523818      0.0041122298   0.00089783951  0.00014424276
     21080         769   1847           0.00046149062  0.00018120177  2.0539317      0.0041150592   0.0010150204   0.00016036155
     21111         769   1848           0.00046044325  0.00018388547  2.0554816      0.0041178889   0.00090962778  0.00015689748
     21142         769   1848           0.00046073259  0.00018276261  2.0570315      0.0041207187   0.00085149492  0.00016194121
     21173         769   1848           0.00046113     0.00018162851  2.0585814      0.0041235487   0.00087025175  0.00016766501
     21204         769   1847           0.00045970598  0.00018163587  2.0601313      0.0041227962   0.00075912596  0.00015823828
     21235         769   1848           0.00045961797  0.00018291144  2.0616812      0.0041252261   0.00092931371  0.00015621688
     21266         769   1846           0.00045794081  0.00018112119  2.0632311      0.0040602079   0.00094197448  0.00015722737
     21297         769   1846           0.0004581865   0.00018218678  2.064781       0.0040733254   0.00090918646  0.00015431796
     21328         769   1846           0.0004582036   0.00018453482  2.0663309      0.0040865365   0.00078750235  0.00014778288
     21359         769   1846           0.00045806753  0.00018030257  2.0678808      0.0040749823   0.00084339864  0.00015971689
     21390         769   1845           0.00045786869  0.00018208768  2.0694307      0.0040753965   0.00078189218  0.0001576291 
     21421         769   1846           0.00045846359  0.00018238744  2.0709806      0.0040838089   0.00073944083  0.00014633114
     21452         769   1847           0.0004586278   0.0001805259   2.0725305      0.0040915425   0.0010090327   0.00016132852
     21483         769   1846           0.00045760387  0.00018104193  2.0740804      0.0040015891   0.00095073463  0.00014737443
     21514         769   1846           0.00045750816  0.00018043073  2.0756303      0.0040044767   0.00081403358  0.0001563635 
     21545         769   1846           0.00045763968  0.00018328505  2.0771802      0.0040073644   0.0010677878   0.00014714722
     21576         769   1847           0.00045807725  0.00018191497  2.0787301      0.0040102521   0.00087052645  0.00014483457
     21607         769   1847           0.00045812316  0.00018433992  2.08028        0.0040131399   0.00074200962  0.00013876332
     21638         769   1847           0.0004579858   0.00018045015  2.0818299      0.0040160277   0.00099538628  0.00015948907
     21669         769   1846           0.00045800892  0.00018042505  2.0833798      0.0040189157   0.00087431756  0.00015350308
     21700         769   1846           0.00045854968  0.00018246139  2.0849297      0.0040218037   0.00078162836  0.00015355024
     21731         769   1845           0.00045833367  0.00018222201  2.0864796      0.0040246918   0.00098809915  0.00015011099
     21762         769   1844           0.00045801604  0.00018008167  2.0880295      0.00402758     0.00081942243  0.00016342277
     21793         769   1845           0.00045856809  0.00017986491  2.0895794      0.0040304682   0.0009202083   0.00016222537
     21824         769   1845           0.00045819991  0.00018154242  2.0911293      0.0040333565   0.00091007518  0.00015139975
     21855         769   1843           0.00045843508  0.00018451438  2.0926792      0.0040362449   0.00083844683  0.00014687301
     21886         769   1843           0.00045818669  0.00018243317  2.0942291      0.0040391333   0.00090271653  0.00015818889
     21917         769   1842           0.00045831814  0.0001814842   2.095779       0.0040420218   0.0008686788   0.00015753231
     21948         769   1843           0.00045845194  0.00018061423  2.0973289      0.0040449104   0.00099140336  0.00016320098
     21979         769   1843           0.00045891283  0.00018028112  2.0988788      0.0040477991   0.0008765728   0.00016305639
     22010         769   1841           0.00045672938  0.000180141    2.1004287      0.0040460129   0.00086025089  0.00015389915
     22041         769   1842           0.00045695731  0.00017846174  2.1019786      0.004048996    0.00096198533  0.00015287135
     22072         769   1842           0.00045707449  0.00018081527  2.1035285      0.0040519791   0.00086642411  0.00015509989
     22103         769   1842           0.00045743028  0.00018347476  2.1050784      0.0040549623   0.00084246789  0.00014082083
     22134         769   1841           0.00045614171  0.00018046249  2.1066283      0.0040579454   0.00081909095  0.0001437885 
     22165         769   1841           0.00045606656  0.00017999633  2.1081782      0.0040609285   0.00095367248  0.00015307394
     22196         769   1841           0.00045607211  0.0001797193   2.1097281      0.0040639117   0.00090158587  0.00014913781
     22227         769   1841           0.0004561428   0.00018251691  2.111278       0.0040668948   0.00092421846  0.00014126037
     22258         769   1841           0.00045642531  0.0001819411   2.1128279      0.0040698779   0.001026966    0.00014308152
     22289         769   1841           0.00045665378  0.00018067424  2.1143778      0.0040728611   0.00084027208  0.00015362842
     22320         769   1841           0.00045672255  0.0001816431   2.1159277      0.0040758442   0.0010095572   0.00014649242
     22351         769   1842           0.0004570467   0.00018016411  2.1174776      0.0040788273   0.00079152776  0.00015584638
     22382         769   1842           0.00045684424  0.00018332673  2.1190275      0.0040818105   0.00088789459  0.00013738061
     22413         769   1842           0.00045726801  0.00018414843  2.1205774      0.0040847936   0.00079423909  0.00014115699
     22444         769   1843           0.00045777474  0.00018200067  2.1221273      0.0040877768   0.0007497152   0.00015108666
     22475         769   1841           0.00045792248  0.00018022811  2.1236771      0.0040907599   0.00099608794  0.00015691805
     22506         769   1841           0.00045750277  0.00018046257  2.125227       0.0040937431   0.00092690481  0.00015447421
     22537         769   1842           0.00045758306  0.00018201224  2.1267769      0.0040967262   0.00083895483  0.00015290813
     22568         769   1841           0.00045724388  0.00018139458  2.1283268      0.0040997094   0.0010076169   0.0001540036 
     22599         769   1841           0.00045752583  0.00017965367  2.1298767      0.0041026925   0.00096197372  0.00015651662
     22630         769   1842           0.00045824125  0.0001823335   2.1314266      0.0041056757   0.00082398429  0.00015442473
     22661         769   1841           0.00045816546  0.00018090767  2.1329765      0.0041086589   0.00087719096  0.00015864632
     22692         769   1840           0.00045771804  0.0001818132   2.1345264      0.004111642    0.00094680842  0.0001465637 
     22723         769   1840           0.00045752953  0.00017894235  2.1360763      0.0041146252   0.00090546299  0.00015989668
     22754         769   1840           0.00045792177  0.00018551976  2.1376262      0.0041176084   0.00081954578  0.0001388907 
     22785         769   1840           0.00045810019  0.00018248881  2.1391761      0.0041205915   0.0009637522   0.00014679844
     22816         769   1840           0.00045807589  0.00017975478  2.140726       0.0041235747   0.00097291025  0.00015863876
     22847         769   1839           0.00045643009  0.00018073521  2.1422759      0.0041199061   0.00076855453  0.00014594651
     22878         769   1838           0.00045615572  0.00018139337  2.1438258      0.0041228443   0.00085233771  0.00014449751
     22909         769   1839           0.00045538048  0.0001815845   2.1453757      0.0040208369   0.00090637816  0.00014096953
     22940         769   1839           0.00045545272  0.00018305915  2.1469256      0.0040237148   0.00089115282  0.00012950675
     22971         769   1839           0.00045522688  0.00018021409  2.1484755      0.0040265928   0.00081472396  0.00014288337
     23002         769   1839           0.00045530096  0.00017975104  2.1500254      0.0040294708   0.00096949919  0.00013624835
     23033         769   1840           0.00045580458  0.0001821703   2.1515753      0.0040323488   0.00093795308  0.0001342917 
     23064         769   1841           0.00045614851  0.00018045828  2.1531252      0.0040352268   0.0007461349   0.00014396467
     23095         769   1840           0.00045564447  0.00018031317  2.1546751      0.0040381048   0.00080230717  0.00014246487
     23126         769   1840           0.00045614499  0.00018026294  2.156225       0.0040409829   0.00079688444  0.00014904054
     23157         769   1840           0.00045617868  0.00018064888  2.1577749      0.004043861    0.00093069058  0.00014292112
     23188         769   1840           0.00045628858  0.00018049551  2.1593248      0.0040467391   0.00078016226  0.00014171618
     23219         769   1839           0.00045583955  0.00018097037  2.1608747      0.0040496172   0.00092069912  0.00013957726
     23250         769   1839           0.00045592596  0.0001779322   2.1624246      0.0040524953   0.00093002235  0.00016076498
     23281         769   1840           0.00045614959  0.00018151044  2.1639745      0.0040553735   0.000858029    0.00013730942
     23312         769   1839           0.000455756    0.00017953116  2.1655244      0.0040582517   0.0008529845   0.00015300898
     23343         769   1839           0.00045559706  0.00018161825  2.1670743      0.0040611298   0.0009681239   0.00013744734
     23374         769   1839           0.00045619291  0.00018303965  2.1686242      0.0040640081   0.00081430538  0.00013494781
     23405         769   1839           0.00045654359  0.00018413926  2.1701741      0.0040668863   0.00087094309  0.00013525678
     23436         769   1839           0.00045661773  0.0001795703   2.171724       0.0040697645   0.00099590101  0.00015161822
     23467         769   1839           0.00045602878  0.00018118501  2.1732739      0.0040726428   0.00081083294  0.00015484333
     23498         769   1839           0.00045697468  0.00017933559  2.1748238      0.0040755211   0.0008732444   0.00014774694
     23529         769   1838           0.00045635298  0.00018136979  2.1763737      0.0040783994   0.00078467641  0.00014721087
     23560         769   1839           0.00045711505  0.0001823682   2.1779236      0.0040812777   0.00075061542  0.00014294388
     23591         769   1839           0.00045668295  0.00018221887  2.1794735      0.004084156    0.0010159913   0.00015000809
     23622         769   1839           0.00045689321  0.00017622744  2.1810234      0.0040870344   0.00097137369  0.00016258213
     23653         769   1838           0.00045725445  0.00018004978  2.1825733      0.0040899128   0.00090521206  0.0001515097 
     23684         769   1837           0.00045702324  0.00017857349  2.1841232      0.0040927912   0.0010532886   0.00015879284
     23715         769   1837           0.00045688991  0.00018249587  2.1856731      0.0040956696   0.00085375995  0.00014462061
     23746         769   1837           0.00045752562  0.0001807968   2.187223       0.004098548    0.0007650292   0.00015116473
     23777         769   1837           0.00045714482  0.00018193721  2.1887729      0.0041014265   0.0009140907   0.00014609557
     23808         769   1838           0.00045746872  0.00018167232  2.1903228      0.0041043049   0.00094801178  0.00014403724
     23839         769   1838           0.00045731081  0.00017831018  2.1918727      0.0041071834   0.00095082334  0.00016168838
     23870         769   1838           0.00045733896  0.00018185764  2.1934226      0.0041100619   0.00086240437  0.0001529424 
     23901         769   1838           0.00045761935  0.00017953653  2.1949725      0.0041129404   0.00083658101  0.00015080724
     23932         769   1837           0.00045758823  0.00017972604  2.1965224      0.004115819    0.00079726571  0.00015594461
     23963         769   1837           0.00045772542  0.00017979162  2.1980723      0.0041186975   0.00076067732  0.00015577916
     23994         769   1836           0.00045730041  0.00017998669  2.1996222      0.0041215761   0.00087937339  0.00014742273
     24025         769   1837           0.0004578376   0.00017951038  2.2011721      0.0041244547   0.00082646534  0.00016277106
     24056         769   1836           0.00045605538  0.00017937916  2.202722       0.0040445642   0.00091658132  0.00014671523
     24087         769   1835           0.00045616666  0.00018044617  2.2042719      0.0040467117   0.00070643473  0.00015148135
     24118         769   1835           0.000456169    0.00018126413  2.2058218      0.0040488596   0.0009271385   0.00015164595
     24149         769   1835           0.0004562955   0.00017646907  2.2073717      0.0040510078   0.00081618828  0.00015253913
     24180         769   1834           0.00045625046  0.00018201306  2.2089216      0.0040531563   0.00080327535  0.00014658692
     24211         769   1835           0.00045630258  0.0001785394   2.2104715      0.0040553053   0.00076551787  0.00015408383
     24242         769   1835           0.00045681385  0.00017767674  2.2120214      0.0040574546   0.00080054784  0.00015460829
     24273         769   1834           0.00045663737  0.00017991204  2.2135713      0.0040596043   0.00091931193  0.00014816767
     24304         769   1833           0.00045671117  0.00017779376  2.2151212      0.0040617543   0.00094015448  0.00015772374
     24335         769   1834           0.00045672127  0.00017848085  2.2166711      0.0040639047   0.00088461412  0.00015893396
     24366         769   1835           0.00045677678  0.0001785056   2.218221       0.0040660555   0.00092633167  0.00016077967
     24397         769   1835           0.0004570065   0.00017693455  2.2197709      0.0040682067   0.0010425234   0.00015995788
     24428         769   1835           0.00045727643  0.00018179648  2.2213208      0.0040703582   0.00084934761  0.00014347193
     24459         769   1834           0.00045660397  0.00018402507  2.2228707      0.00407251     0.00083935202  0.00013825902
     24490         769   1836           0.00045731563  0.00017832881  2.2244206      0.0040746623   0.00083641528  0.00016500981
     24521         769   1836           0.0004574971   0.00017779716  2.2259705      0.0040768149   0.0008795684   0.00016248766
     24552         769   1836           0.00045738193  0.00017834737  2.2275204      0.0040789678   0.00086448213  0.00015766572
     24583         769   1836           0.00045737647  0.0001807976   2.2290703      0.0040811211   0.0008816024   0.00014996403
     24614         769   1835           0.00045698295  0.00018218411  2.2306202      0.0040832748   0.00088724497  0.00015181347
     24645         769   1835           0.0004576051   0.0001806218   2.2321701      0.0040854288   0.00084093344  0.00016199405
     24676         769   1835           0.00045762908  0.00018285636  2.23372        0.0040875832   0.00076794011  0.00014397334
     24707         769   1835           0.00045753231  0.00017988928  2.2352699      0.004089738    0.00093123274  0.00016416623
     24738         769   1836           0.00045786114  0.00018014931  2.2368198      0.0040918931   0.00079502356  0.00015082909
     24769         769   1837           0.00045829341  0.00017968778  2.2383697      0.0040940486   0.00081112146  0.00015691612
     24800         769   1837           0.0004588512   0.00017792867  2.2399196      0.0040962044   0.00085968302  0.00016405134
     24831         769   1837           0.00045867853  0.00017594028  2.2414695      0.0040983606   0.000953434    0.00017790242
     24862         769   1837           0.00045933641  0.00017936122  2.2430194      0.0041005171   0.00099393742  0.00015419885
     24893         769   1838           0.0004590694   0.00017743329  2.2445693      0.004102674    0.00089091746  0.00016681882
     24924         769   1838           0.00045942447  0.00017807315  2.2461192      0.0041048313   0.00082899282  0.00017133503
     24955         769   1839           0.00045950324  0.00018044225  2.2476691      0.0041069889   0.00070916815  0.00016511616
     24986         769   1840           0.00045979764  0.00018043068  2.249219       0.0041091468   0.00096890213  0.00016608459
     25017         769   1841           0.00046031832  0.00018034561  2.2507689      0.0041113052   0.0008478914   0.00015925435
     25048         769   1840           0.00046003773  0.00018085363  2.2523188      0.0041134638   0.00079663119  0.00016304271
     25079         769   1839           0.00045952304  0.00018005847  2.2538687      0.0041156228   0.00082033324  0.00016385094
     25110         769   1838           0.00045862591  0.00018143826  2.2554186      0.0041177822   0.00088453378  0.00016111684
     25141         769   1838           0.0004588828   0.0001762321   2.2569685      0.0041199419   0.00076902834  0.00017229164
     25172         769   1839           0.00045949327  0.00018094709  2.2585184      0.004122102    0.00099292762  0.00015209441
     25203         769   1839           0.00045913731  0.00017974959  2.2600683      0.0041242624   0.0008653599   0.00016092289
     25234         769   1839           0.00045911323  0.00017942528  2.2616182      0.0041264232   0.00089807504  0.00016797578
     25265         769   1838           0.00045741671  0.00017706661  2.2631681      0.0040473663   0.00088343022  0.0001672388 
     25296         769   1838           0.00045776257  0.00017840728  2.264718       0.0040501366   0.00099971078  0.00016424046
     25327         769   1838           0.00045804289  0.00018074202  2.2662679      0.004052907    0.00073757072  0.00015410331
     25358         769   1838           0.00045813724  0.00017779178  2.2678178      0.0040556773   0.0010104098   0.00016716309
     25389         769   1838           0.00045817846  0.00018001063  2.2693677      0.0040584477   0.0008525089   0.00015743477
     25420         769   1838           0.00045827917  0.0001801663   2.2709176      0.004061218    0.00086704956  0.00016014348
     25451         769   1838           0.00045814365  0.00017960518  2.2724675      0.0040639884   0.00086203323  0.00016045101
     25482         769   1838           0.00045834566  0.00017920188  2.2740174      0.0040667587   0.00078532791  0.00015941433
     25513         769   1838           0.00045832725  0.00017898271  2.2755673      0.0040695291   0.00087209523  0.00015831222
     25544         769   1838           0.00045873163  0.00017967132  2.2771172      0.0040722995   0.00079708771  0.00016619994
     25575         769   1838           0.00045846121  0.00018113608  2.2786671      0.0040750698   0.00086305676  0.00015592396
     25606         769   1836           0.00045834326  0.00018212565  2.280217       0.0040778402   0.00089331237  0.00015525041
     25637         769   1835           0.00045792268  0.00017959845  2.2817669      0.0040806105   0.0008785564   0.00016260328
     25668         769   1835           0.00045851923  0.0001799467   2.2833168      0.0040833809   0.00088296385  0.00016356555
     25699         769   1834           0.00045803199  0.00017890788  2.2848667      0.0040861512   0.00093899086  0.00016728748
     25730         769   1833           0.00045687014  0.00017983561  2.2864166      0.0040889216   0.00088722771  0.00015682032
     25761         769   1834           0.0004574919   0.00017939235  2.2879665      0.004091692    0.00082524556  0.0001615007 
     25792         769   1834           0.00045769247  0.0001764496   2.2895164      0.0040944623   0.0010173447   0.00017084438
     25823         769   1832           0.0004572163   0.00017598697  2.2910663      0.0040972327   0.00082207058  0.00017097206
     25854         769   1833           0.00045746907  0.00017900621  2.2926162      0.0041000031   0.00081086864  0.00015485562
     25885         769   1834           0.00045774096  0.00017810176  2.2941661      0.0041027734   0.00087091709  0.00016457452
     25916         769   1834           0.00045784847  0.00017984881  2.295716       0.0041055438   0.00084902851  0.0001456466 
     25947         769   1833           0.00045748622  0.0001787024   2.2972659      0.0041083142   0.00084991641  0.00015290808
     25978         769   1832           0.00045719495  0.00017835499  2.2988158      0.0041110845   0.00086236837  0.00015612719
     26009         769   1831           0.00045754752  0.00018088803  2.3003657      0.0041138549   0.00089021803  0.00014082382
     26040         769   1832           0.00045792162  0.0001801364   2.3019156      0.0041166253   0.00078457207  0.0001594802 
     26071         769   1832           0.00045791823  0.00017738355  2.3034655      0.0041193957   0.00086810671  0.00016812949
     26102         769   1832           0.00045819214  0.00018061997  2.3050154      0.004122166    0.00085437813  0.00015449498
     26133         769   1831           0.0004579393   0.0001771859   2.3065653      0.0041249364   0.0010371383   0.00017123883
     26164         769   1830           0.00045632672  0.0001778959   2.3081152      0.0040402497   0.00084234876  0.00016140728
     26195         769   1830           0.00045694511  0.00017934246  2.3096651      0.0040429027   0.00093122399  0.00015801979
     26226         769   1829           0.00045700263  0.0001773343   2.311215       0.0040455559   0.0010062327   0.00016901323
     26257         769   1830           0.00045704956  0.00017578463  2.3127649      0.004048209    0.00078597816  0.00016707296
     26288         769   1829           0.00045698802  0.00017697526  2.3143148      0.0040508622   0.00080617918  0.00016139333
     26319         769   1828           0.00045637827  0.00018008325  2.3158647      0.0040535154   0.00085235915  0.00015457063
     26350         769   1828           0.00045656799  0.00017779178  2.3174146      0.0040561687   0.00091528155  0.00016166433
     26381         769   1828           0.00045655511  0.00017773217  2.3189645      0.004058822    0.00082499248  0.00016518178
     26412         769   1827           0.00045655895  0.00017725768  2.3205144      0.0040614754   0.00087086719  0.00016148032
     26443         769   1828           0.00045664007  0.00017950046  2.3220643      0.0040641288   0.00081202918  0.00016487445
     26474         769   1827           0.00045673317  0.00017605726  2.3236142      0.0040667822   0.00085042451  0.00017469035
     26505         769   1828           0.00045714372  0.00017620849  2.3251641      0.0040694357   0.0010319698   0.00016414758
     26536         769   1828           0.00045686228  0.0001785917   2.326714       0.0040720892   0.00094436322  0.00016882048
     26567         769   1827           0.00045642938  0.00018017932  2.3282639      0.0040747427   0.00083190329  0.00015631514
     26598         769   1827           0.00045647272  0.00017895951  2.3298138      0.0040773963   0.00099884385  0.00016251642
     26629         769   1826           0.00045556256  0.00017922739  2.3313637      0.0040800499   0.00077915866  0.00015417322
     26660         769   1826           0.00045557886  0.00017898595  2.3329136      0.0040827036   0.00076594345  0.0001640361 
     26691         769   1826           0.00045569303  0.00017735025  2.3344635      0.0040853573   0.00079017539  0.00016313039
     26722         769   1826           0.00045593988  0.00017919701  2.3360134      0.004088011    0.00079868254  0.00015119391
     26753         769   1826           0.00045590186  0.0001798161   2.3375633      0.0040906648   0.0010717838   0.00015258523
     26784         769   1828           0.00045655411  0.00017520698  2.3391132      0.0040933186   0.0008867243   0.00017631859
     26815         769   1829           0.00045648515  0.00017878628  2.3406631      0.0040959725   0.00077547238  0.00015947098
     26846         769   1829           0.00045646882  0.00018159778  2.342213       0.0040986264   0.00088052895  0.00014729613
     26877         769   1829           0.00045696394  0.00017744128  2.3437629      0.0041012803   0.00089087099  0.0001629691 
     26908         769   1829           0.00045655244  0.0001811701   2.3453128      0.0041039342   0.00091386976  0.00015002956
     26939         769   1830           0.00045686254  0.00017830911  2.3468627      0.0041065882   0.00091249099  0.00016108472
     26970         769   1828           0.00045693163  0.00017519859  2.3484126      0.0041092423   0.00092657428  0.00016905827
     27001         769   1830           0.00045744297  0.00017529141  2.3499625      0.0041118964   0.00077956738  0.00016469599
     27032         769   1829           0.00045643273  0.00017975622  2.3515124      0.0041145505   0.00083555021  0.00015313772
     27063         769   1828           0.000456061    0.00017677097  2.3530623      0.0041172046   0.00079241833  0.00016803649
     27094         769   1828           0.00045673138  0.00017620778  2.3546122      0.0041198588   0.00087948172  0.00016478493
     27125         769   1828           0.00045623052  0.00017938807  2.3561621      0.004122513    0.0008090673   0.00016065879
     27156         769   1828           0.00045643567  0.00017644053  2.357712       0.0041251673   0.00092038183  0.00016871632
     27187         769   1827           0.00045511108  0.0001761465   2.3592619      0.0040487748   0.00089315365  0.00016042769
     27218         769   1827           0.0004551758   0.0001767599   2.3608118      0.0040511414   0.00079200359  0.00016403354
     27249         769   1827           0.00045524266  0.00017816585  2.3623617      0.0040535082   0.00087039693  0.00016005155
     27280         769   1827           0.00045511916  0.00017994187  2.3639116      0.0040558751   0.00088172733  0.00014996873
     27311         769   1827           0.000455203    0.00017860744  2.3654615      0.0040582423   0.00089839268  0.00015725828
     27342         769   1827           0.0004553034   0.00017722947  2.3670114      0.0040606096   0.00089577181  0.00016060838
     27373         769   1827           0.00045527997  0.00018073724  2.3685613      0.004062977    0.00090979835  0.00014944625
     27404         769   1828           0.00045598496  0.00017521712  2.3701112      0.0040653447   0.00085006524  0.00016683302
     27435         769   1828           0.00045569219  0.00017703742  2.3716611      0.0040677125   0.00093397666  0.00016737454
     27466         769   1828           0.00045593293  0.00017586869  2.373211       0.0040700804   0.00096370782  0.00016380521
     27497         769   1828           0.00045619063  0.00017840175  2.3747609      0.0040724486   0.00085038552  0.00016199844
     27528         769   1827           0.00045532854  0.00017774123  2.3763108      0.0040748169   0.00080553497  0.00016007762
     27559         769   1827           0.0004556734   0.00017602255  2.3778607      0.0040771854   0.0010837732   0.00016664964
     27590         769   1827           0.00045606236  0.0001769312   2.3794106      0.004079554    0.00098766892  0.0001646533 
     27621         769   1827           0.00045576297  0.00017877236  2.3809605      0.0040819228   0.00092646713  0.0001550119 
     27652         769   1827           0.00045607234  0.00017757909  2.3825104      0.0040842918   0.00090616676  0.00016654233
     27683         769   1827           0.00045625012  0.00017737285  2.3840603      0.0040866609   0.00087064975  0.00016697117
     27714         769   1827           0.00045613568  0.00017764419  2.3856102      0.0040890303   0.00092994504  0.00016328959
     27745         769   1827           0.00045598389  0.00017576182  2.3871601      0.0040913997   0.00089006489  0.00017577242
     27776         769   1829           0.00045669449  0.00017568553  2.38871        0.0040937694   0.00094143644  0.00016958148
     27807         769   1829           0.00045655197  0.00018039866  2.3902599      0.0040961392   0.00082605723  0.00015495596
     27838         769   1829           0.00045735769  0.00017838049  2.3918098      0.0040985092   0.00098087363  0.00016596606
     27869         769   1828           0.00045691526  0.00017803962  2.3933597      0.0041008793   0.001072727    0.00016436544
     27900         769   1828           0.00045688106  0.00017600597  2.3949096      0.0041032497   0.00077258811  0.00016591569
     27931         769   1829           0.00045715612  0.00018027247  2.3964595      0.0041056201   0.00097394998  0.00016115715
     27962         769   1828           0.00045676515  0.00017678297  2.3980094      0.0041079908   0.000798485    0.00017569191
     27993         769   1828           0.00045699355  0.00017821794  2.3995593      0.0041103616   0.00078547615  0.00016546194
     28024         769   1829           0.00045729896  0.00017582546  2.4011092      0.0041127326   0.00086698767  0.00016848926
     28055         769   1827           0.00045728097  0.00017811229  2.4026591      0.0041151037   0.0008047588   0.00016857477
     28086         769   1826           0.00045646078  0.00017770146  2.404209       0.004117475    0.00090630341  0.00016998017
     28117         769   1826           0.00045702937  0.00017900035  2.4057589      0.0041198465   0.00091323618  0.00016303492
     28148         769   1826           0.00045688446  0.00017658027  2.4073088      0.0041222181   0.00092397968  0.00017682047
     28179         769   1824           0.00045524266  0.00017721286  2.4088587      0.0040109968   0.00091038552  0.00016348004
     28210         769   1824           0.0004555634   0.0001777866   2.4104086      0.0040162007   0.00087905633  0.00016706958
     28241         769   1824           0.00045579542  0.00017711468  2.4119585      0.0040135718   0.00090045222  0.00016370007
     28272         769   1822           0.00045434791  0.00017647663  2.4135084      0.0039873236   0.0011117877   0.00015502907
     28303         769   1822           0.00045294714  0.00017909503  2.4150583      0.0039896603   0.0014372783   0.00014261542
     28334         769   1821           0.00045367991  0.00017436298  2.4166082      0.0039919972   0.0010204409   0.00016412237
     28365         769   1820           0.00045357208  0.0001757694   2.4181581      0.0039943341   0.00099681056  0.00016052062
     28396         769   1820           0.00045375109  0.00017705913  2.419708       0.0039966713   0.00085806349  0.00015602598
     28427         769   1819           0.00045301897  0.0001751398   2.4212579      0.0039990085   0.00080425877  0.00016426702
     28458         769   1817           0.00045245968  0.00017865528  2.4228078      0.0040013459   0.00098565851  0.00015823151
     28489         769   1816           0.00045221625  0.00017766143  2.4243577      0.0040036834   0.00093614375  0.0001580477 
     28520         769   1817           0.00045281236  0.00017559877  2.4259076      0.004006021    0.00079676662  0.00016179755
     28551         769   1817           0.00045303425  0.00017951058  2.4274575      0.0040083588   0.00090168846  0.00014671189
     28582         769   1817           0.00045293732  0.00017458941  2.4290074      0.0040106967   0.0010011334   0.00016712108
     28613         769   1818           0.0004531493   0.000174154    2.4305573      0.0040130347   0.00078073429  0.0001713276 
     28644         769   1817           0.00045307728  0.00017834551  2.4321072      0.0040153728   0.0009211676   0.00014982288
     28675         769   1817           0.00045369316  0.00017539662  2.4336571      0.0040177111   0.00099907087  0.00015972336
     28706         769   1817           0.00045342023  0.00017582454  2.435207       0.0040200495   0.00080315771  0.00016142106
     28737         769   1817           0.00045355438  0.00017636925  2.4367569      0.0040223881   0.00094319474  0.00016027688
     28768         769   1817           0.00045329662  0.00017584461  2.4383068      0.0040247267   0.00079538843  0.00016715216
     28799         769   1817           0.00045389669  0.00017491132  2.4398567      0.0040270655   0.00096162938  0.00016938762
     28830         769   1816           0.00045383789  0.00017450933  2.4414066      0.0040294044   0.00082068346  0.00016815354
     28861         769   1816           0.0004536968   0.0001687781   2.4429565      0.0040317435   0.00089178399  0.00018791629
     28892         769   1816           0.00045430677  0.00017300834  2.4445063      0.0040340827   0.00089060992  0.00017601862
     28923         769   1816           0.00045420121  0.00017469619  2.4460562      0.004036422    0.00091519078  0.00017357665
     28954         769   1816           0.00045373288  0.00017597553  2.4476061      0.0040387614   0.00091623873  0.00017554173
     28985         769   1815           0.00045344704  0.00017374696  2.449156       0.0040411009   0.00098289463  0.00016856947
     29016         769   1815           0.00045396512  0.00017387117  2.4507059      0.0040434406   0.0010834791   0.00017330931
     29047         769   1816           0.0004541014   0.00017188249  2.4522558      0.0040457804   0.00080356686  0.00018822448
     29078         769   1817           0.00045457926  0.00017368156  2.4538057      0.0040481203   0.00088398808  0.0001722573 
     29109         769   1817           0.00045444004  0.00017336909  2.4553556      0.0040504604   0.0010523436   0.00017863431
     29140         769   1816           0.0004541784   0.00017402426  2.4569055      0.0040528006   0.00093397883  0.00016748345
     29171         769   1815           0.00045409717  0.00017465157  2.4584554      0.0040551409   0.00078380052  0.0001751894 
     29202         769   1815           0.00045403005  0.00017548165  2.4600053      0.0040574813   0.00084630287  0.00017365112
     29233         769   1814           0.00045344496  0.00017429315  2.4615552      0.0040598219   0.00093633566  0.00016937871
     29264         769   1813           0.00045340235  0.00017455509  2.4631051      0.0040621626   0.00097865639  0.00017670654
     29295         769   1812           0.0004531931   0.00017251982  2.464655       0.0040645034   0.00092290923  0.00017675279
     29326         769   1811           0.0004530075   0.00017596562  2.4662049      0.0040668443   0.00097184166  0.00016268382
     29357         769   1811           0.00045357106  0.00017295764  2.4677548      0.0040691853   0.0007588583   0.00018226045
     29388         769   1809           0.0004524615   0.00017463298  2.4693047      0.0040715265   0.00078349744  0.00017114985
     29419         769   1809           0.00045274519  0.00017282134  2.4708546      0.0040738678   0.00091709475  0.00017701572
     29450         769   1809           0.00045158342  0.00017340195  2.4724045      0.0040628779   0.00083153244  0.00017398597
     29481         769   1808           0.00045183406  0.00017211961  2.4739544      0.0040653798   0.00085748551  0.00017741229
     29512         769   1807           0.00045150668  0.00017417104  2.4755043      0.0040678818   0.0008566556   0.00017520996
     29543         769   1808           0.00045174589  0.00017607778  2.4770542      0.0040703837   0.0008981117   0.00016713653
     29574         769   1807           0.00045127586  0.0001719854   2.4786041      0.0040728857   0.0011284451   0.0001676764 
     29605         769   1807           0.00045158939  0.00017223578  2.480154       0.0040753878   0.00081824587  0.00018407229
     29636         769   1807           0.00045212176  0.0001732853   2.4817039      0.0040778898   0.00081711013  0.00016846516
     29667         769   1809           0.00045233921  0.00017297983  2.4832538      0.0040803919   0.00077721103  0.00017532354
     29698         769   1809           0.0004520638   0.00017325641  2.4848037      0.004082894    0.00089253741  0.00017368713
     29729         769   1809           0.00045239878  0.00017333308  2.4863536      0.0040853962   0.00089812047  0.000175822  
     29760         769   1811           0.0004527448   0.00017316249  2.4879035      0.0040878984   0.00081024886  0.00017137012
     29791         769   1810           0.00045203455  0.00017319922  2.4894534      0.0040904006   0.00080863796  0.00017137066
     29822         769   1810           0.00045235342  0.00016836398  2.4910033      0.0040929028   0.00081637511  0.00018978212
     29853         769   1810           0.00045205935  0.00017533692  2.4925532      0.004095405    0.00086924987  0.00016658748
     29884         769   1810           0.00045227846  0.00017365554  2.4941031      0.0040979073   0.00077009887  0.00016581229
     29915         769   1810           0.00045255017  0.00017234443  2.495653       0.0041004096   0.00077874063  0.00018454012
     29946         769   1810           0.00045227282  0.00016985887  2.4972029      0.0041029119   0.00086830356  0.00019303639
     29977         769   1810           0.00045270561  0.00017455658  2.4987528      0.0041054143   0.00075764983  0.00017020698
     30008         769   1810           0.00045301562  0.00017396401  2.5003027      0.0041079167   0.00091191377  0.00017021686
     30039         769   1812           0.00045368848  0.00017256603  2.5018526      0.0041104191   0.00078101543  0.00018234848
     30070         769   1812           0.00045385178  0.00017038895  2.5034025      0.0041129215   0.00084822919  0.00018215677
     30101         769   1811           0.00045321576  0.00017473995  2.5049524      0.004115424    0.00095040734  0.0001819247 
     30132         769   1810           0.00045301099  0.0001715165   2.5065023      0.0041179265   0.00088598895  0.00018532783
     30163         769   1810           0.00045336226  0.00017159711  2.5080522      0.004120429    0.00093293323  0.00019019549
     30194         769   1810           0.00045315212  0.0001733324   2.5096021      0.0041229316   0.00092239706  0.00017916146
     30225         769   1811           0.00045354311  0.00017095331  2.511152       0.0041254341   0.00083037914  0.00018681443
     30256         769   1811           0.00045236445  0.00017337097  2.5127019      0.0040595986   0.00093795556  0.00016672663
     30287         769   1811           0.00045274401  0.00017332724  2.5142518      0.0040616742   0.00083360336  0.00017095896
     30318         769   1811           0.00045233424  0.0001744406   2.5158017      0.0040637501   0.00095723099  0.00016389521
     30349         769   1811           0.0004527735   0.00017130745  2.5173516      0.0040658261   0.00082840053  0.00018423551
     30380         769   1811           0.00045145042  0.00017332596  2.5189015      0.0040679024   0.00080154263  0.00017088608
     30411         769   1810           0.0004512361   0.00017153265  2.5204514      0.0040699789   0.00093414121  0.00017537597
     30442         769   1810           0.00045103206  0.00017410517  2.5220013      0.0040720557   0.00090040988  0.00017212654
     30473         769   1810           0.00045077413  0.00017534186  2.5235512      0.0040741326   0.00088031903  0.00015901443
     30504         769   1810           0.00045117316  0.00017525638  2.5251011      0.0040762098   0.00082052795  0.00017218868
     30535         769   1810           0.0004513476   0.00017215661  2.526651       0.0040782871   0.00090177527  0.00018046313
     30566         769   1809           0.00045156989  0.00017125974  2.5282009      0.0040803647   0.00080010052  0.00017974982
     30597         769   1809           0.00045164956  0.00017261231  2.5297508      0.0040824425   0.00090586647  0.00017782566
     30628         769   1809           0.0004516689   0.00017287145  2.5313007      0.0040845205   0.00081418094  0.00016924285
     30659         769   1808           0.00045167425  0.00017332228  2.5328506      0.0040865988   0.0011159265   0.0001711396 
     30690         769   1808           0.00045122388  0.00017442397  2.5344005      0.0040886772   0.00072626149  0.00016435247
     30721         769   1808           0.00045113622  0.00017427832  2.5359504      0.0040907559   0.00083092072  0.00016225289
     30752         769   1807           0.00045080296  0.00017189308  2.5375003      0.0040928348   0.00079339692  0.00018507307
     30783         769   1807           0.00045163668  0.00017070918  2.5390502      0.0040949139   0.00085029402  0.0001785326 
     30814         769   1807           0.0004514637   0.00017324419  2.5406001      0.0040969932   0.00080632071  0.00017051127
     30845         769   1808           0.00045181387  0.00017430575  2.54215        0.0040990727   0.00081601232  0.00016518306
     30876         769   1809           0.00045175136  0.00017218952  2.5436999      0.0041011524   0.00090536153  0.0001747497 
     30907         769   1808           0.00045182724  0.00017353973  2.5452498      0.0041032324   0.00079498273  0.00017461058
     30938         769   1808           0.00045190294  0.00017185271  2.5467997      0.0041053125   0.00083126035  0.00018083538
     30969         769   1806           0.00045162555  0.00017015323  2.5483496      0.0041073929   0.00084729264  0.00019107376
     31000         769   1806           0.00045151826  0.00017387629  2.5498995      0.0041094735   0.00075328467  0.00017286658
     31031         769   1805           0.00045187182  0.00017163009  2.5514494      0.0041115543   0.00079243108  0.0001869279 
     31062         769   1805           0.00045178342  0.00017069018  2.5529993      0.0041136353   0.00079688798  0.00018880964
     31093         769   1806           0.00045228806  0.00017296205  2.5545492      0.0041157165   0.00076940547  0.00018255403
     31124         769   1806           0.00045241736  0.00017482203  2.5560991      0.0041177979   0.00089389088  0.00017427995
     31155         769   1807           0.0004527548   0.00017281012  2.557649       0.0041198796   0.0008147969   0.00018300275
     31186         769   1804           0.00045248172  0.00017302087  2.5591989      0.0041219614   0.00107617     0.0001913903 
     31217         769   1804           0.00045264865  0.00017068713  2.5607488      0.0041240435   0.0010155223   0.00018821342
     31248         769   1803           0.0004503692   0.00017158364  2.5622987      0.0040807085   0.00089751671  0.00018366575
     31279         769   1802           0.00044982592  0.00017411667  2.5638486      0.0040822917   0.00086533998  0.00017218188
     31310         769   1801           0.00045036149  0.00017082608  2.5653985      0.0040838753   0.00077570007  0.00018490758
     31341         769   1799           0.00044882946  0.00017306311  2.5669484      0.0040854592   0.00095823661  0.00017964521
     31372         769   1799           0.00044926831  0.00017181426  2.5684983      0.0040870434   0.00089948866  0.00017631045
     31403         769   1799           0.00044903274  0.00017053861  2.5700482      0.004088628    0.00076368938  0.00017680644
     31434         769   1799           0.00044935484  0.00016918605  2.5715981      0.0040902129   0.0008097567   0.00018857768
     31465         769   1799           0.00044928501  0.00017287373  2.573148       0.0040917982   0.00083885995  0.00017246698
     31496         769   1799           0.00044955779  0.00017171329  2.5746979      0.0040933838   0.00083406295  0.00018144742
     31527         769   1799           0.00044961387  0.00017259141  2.5762478      0.0040949697   0.00086537029  0.00017501466
     31558         769   1798           0.00044938664  0.00017096339  2.5777977      0.004096556    0.00088769919  0.00018220189
     31589         769   1798           0.00044977283  0.00017256015  2.5793476      0.0040981426   0.00088363011  0.0001861104 
     31620         769   1797           0.00044974832  0.00016750962  2.5808975      0.0040997296   0.00081204882  0.00019699811
     31651         769   1797           0.00044978637  0.00016915617  2.5824474      0.0041013169   0.001030634    0.00017805879
     31682         769   1797           0.00044941406  0.00016966005  2.5839973      0.0041029045   0.00086911039  0.00018357059
     31713         769   1798           0.00045058481  0.00016901541  2.5855472      0.0041044925   0.00079629385  0.00019123088
     31744         769   1799           0.00045038512  0.00016964949  2.5870971      0.0041060808   0.00085278918  0.00019818729
     31775         769   1799           0.00045038863  0.00017133084  2.588647       0.0041076694   0.00092388063  0.00018719747
     31806         769   1798           0.00044910742  0.00017235667  2.5901969      0.0041092584   0.00082785662  0.0001709846 
     31837         769   1799           0.0004495777   0.00017174606  2.5917468      0.0041108477   0.00082362667  0.00017550523
     31868         769   1799           0.00044955844  0.00016868382  2.5932967      0.0041124374   0.00079504962  0.00019289913
     31899         769   1798           0.00044950878  0.00017157602  2.5948466      0.0041140274   0.00085225977  0.00018066253
     31930         769   1796           0.00044905436  0.00016983753  2.5963965      0.0041156177   0.00086798513  0.0001813952 
     31961         769   1796           0.00044780355  0.00017005113  2.5979464      0.0041172084   0.00097600517  0.00017874994
     31992         769   1796           0.0004479527   0.00016844633  2.5994963      0.0041187994   0.0008137749   0.00018322256
     32023         769   1796           0.00044768837  0.00016802028  2.6010462      0.0041203907   0.00087123722  0.00017871686
     32054         769   1797           0.00044836066  0.00017035841  2.6025961      0.0041219824   0.00085327601  0.00018356364
     32085         769   1798           0.00044823423  0.00016991675  2.604146       0.0041235744   0.00089810148  0.00018064121
     32116         769   1798           0.00044844186  0.00017425461  2.6056959      0.0041251667   0.00081575633  0.00017583975
     32147         769   1797           0.00044676198  0.0001729384   2.6072458      0.0040565284   0.0010306295   0.00016781994
     32178         769   1797           0.00044709868  0.00017249503  2.6087957      0.0040582092   0.00086483771  0.00016809074
     32209         769   1796           0.00044668765  0.0001696967   2.6103456      0.0040598903   0.00098672927  0.00018233694
     32240         769   1796           0.00044724489  0.00016758881  2.6118955      0.0040615717   0.00099502465  0.00018208869
     32271         769   1797           0.00044735693  0.0001752555   2.6134454      0.0040632535   0.00084134568  0.00016012564
     32302         769   1797           0.00044740318  0.0001698107   2.6149953      0.0040649355   0.00088682106  0.00018371712
     32333         769   1796           0.00044722736  0.0001713155   2.6165452      0.0040666178   0.00088406234  0.00017617483
     32364         769   1796           0.00044714617  0.00017238166  2.6180951      0.0040683005   0.00095905953  0.00017143865
     32395         769   1796           0.00044718973  0.00017102244  2.619645       0.0040699834   0.00078337083  0.00017061514
     32426         769   1797           0.00044776122  0.00017263099  2.6211949      0.0040716666   0.00087635265  0.0001644001 
     32457         769   1796           0.00044749435  0.00017441217  2.6227448      0.0040733502   0.00090116769  0.00016188408
     32488         769   1796           0.00044754986  0.00017162693  2.6242947      0.004075034    0.00087909476  0.00017589699
     32519         769   1795           0.00044625128  0.00016956826  2.6258446      0.0040291347   0.00095192666  0.00017915033
     32550         769   1794           0.00044563582  0.00017279004  2.6273945      0.0040314779   0.00075107975  0.00016684426
     32581         769   1794           0.00044564702  0.00017230921  2.6289444      0.0040338212   0.00094746009  0.00016038958
     32612         769   1794           0.00044594557  0.00016891035  2.6304943      0.0040361645   0.00084222167  0.00017726725
     32643         769   1793           0.00044459943  0.00016925541  2.6320442      0.0040385078   0.00095635243  0.00016796537
     32674         769   1794           0.00044549472  0.00016940238  2.6335941      0.0040408511   0.00095898612  0.00017206806
     32705         769   1795           0.00044525201  0.00017587757  2.635144       0.0040431945   0.00085711091  0.00015346759
     32736         769   1794           0.00044581346  0.0001732008   2.6366939      0.0040455379   0.00081482693  0.00016590686
     32767         769   1796           0.00044608002  0.00017037546  2.6382438      0.0040478813   0.00091768006  0.00017195909
     32798         769   1795           0.00044602853  0.00016794377  2.6397937      0.0040502247   0.00078567055  0.00017700278
     32829         769   1795           0.000445862    0.00017339867  2.6413436      0.0040525681   0.001135547    0.00016263295
     32860         769   1795           0.00044600237  0.00016899759  2.6428935      0.0040549116   0.00095829752  0.00017213036
     32891         769   1794           0.00044562848  0.00017040851  2.6444434      0.004057255    0.00083058965  0.00016836343
     32922         769   1793           0.00044559176  0.00017108442  2.6459933      0.0040595985   0.00094795107  0.00016963581
     32953         769   1793           0.00044585537  0.00017020818  2.6475432      0.0040619421   0.00080326803  0.00017129398
     32984         769   1792           0.00044532494  0.00017048882  2.6490931      0.0040642856   0.00092060942  0.00016860873
     33015         769   1791           0.00044466935  0.00016908471  2.650643       0.0040666291   0.00089893909  0.00018107606
     33046         769   1790           0.0004447085   0.00017067062  2.6521929      0.0040689727   0.00087802339  0.00017116827
     33077         769   1791           0.00044505671  0.00017267568  2.6537428      0.0040713163   0.00090771281  0.00016400648
     33108         769   1792           0.00044563062  0.00017364343  2.6552927      0.0040736599   0.00096195168  0.00015728124
     33139         769   1794           0.00044596066  0.00016815287  2.6568426      0.0040760036   0.00089790995  0.00018487384
     33170         769   1794           0.00044608365  0.00017186066  2.6583925      0.0040783472   0.00076370173  0.00015932362
     33201         769   1792           0.00044452374  0.00016960353  2.6599424      0.0040806909   0.00089443294  0.00017106701
     33232         769   1791           0.00044432217  0.00017058613  2.6614923      0.0040830346   0.00082072224  0.0001701311 
     33263         769   1788           0.00044358714  0.00017069163  2.6630422      0.0040853783   0.00094379724  0.00015943588
     33294         769   1790           0.00044427588  0.00017184803  2.6645921      0.004087722    0.00086828062  0.00017424207
     33325         769   1789           0.00044413406  0.00016909073  2.666142       0.0040900658   0.00095049235  0.0001719695 
     33356         769   1789           0.00044423879  0.00016636508  2.6676919      0.0040924096   0.0008036197   0.00019081533
     33387         769   1790           0.00044428829  0.00017006366  2.6692418      0.0040947533   0.0011729386   0.00017017298
     33418         769   1790           0.00044382066  0.00017100854  2.6707917      0.0040970972   0.00093504049  0.00016784368
     33449         769   1790           0.0004439141   0.00017080319  2.6723416      0.004099441    0.00078367356  0.00017830474
     33480         769   1791           0.00044435151  0.00017254822  2.6738915      0.0041017848   0.00083395838  0.00016169004
     33511         769   1789           0.00044431704  0.00016992094  2.6754414      0.0041041287   0.00087009806  0.00017042529
     33542         769   1789           0.00044454961  0.00016798107  2.6769913      0.0041064726   0.00092678352  0.00017742314
     33573         769   1788           0.00044403409  0.00016671551  2.6785412      0.0041088165   0.00083399996  0.00018108148
     33604         769   1788           0.00044358352  0.00017000944  2.6800911      0.0041111604   0.00077437803  0.00017232825
     33635         769   1789           0.00044432459  0.00016869568  2.681641       0.0041135044   0.00087522556  0.00018020479
     33666         769   1790           0.00044429434  0.00016881472  2.6831909      0.0041158483   0.00090041841  0.00017657428
     33697         769   1791           0.00044490243  0.00016708538  2.6847408      0.0041181923   0.00072233925  0.00018299132
     33728         769   1791           0.00044467202  0.00016668537  2.6862907      0.0041205363   0.00087093249  0.00017946693
     33759         769   1790           0.00044472639  0.000166436    2.6878406      0.0041228803   0.00081791749  0.00018229961
     33790         769   1790           0.00044473772  0.00016899776  2.6893905      0.0041252244   0.00069427541  0.00017430442
     33821         769   1789           0.00044306724  0.00016769915  2.6909404      0.0041153634   0.00092946881  0.00016928239
     33852         769   1789           0.00044315671  0.00016958674  2.6924903      0.0041176996   0.00096220804  0.00016135292
     33883         769   1789           0.00044332479  0.00016686175  2.6940402      0.0041200359   0.00083499494  0.00018141789
     33914         769   1789           0.0004433734   0.00016893755  2.6955901      0.0041223722   0.00090843799  0.00016840297
     33945         769   1788           0.00044318167  0.00017082999  2.69714        0.0041247084   0.00082700605  0.00016453363
     33976         769   1789           0.00044212074  0.00016837474  2.6986899      0.0040733854   0.00083616917  0.00015196491
     34007         769   1788           0.00044103525  0.00016990624  2.7002398      0.0040752376   0.00091698298  0.00015729792
     34038         769   1788           0.00044151093  0.0001695578   2.7017897      0.00407709     0.00089720224  0.0001610439 
     34069         769   1788           0.00044105854  0.00016849469  2.7033396      0.0040789426   0.00090767643  0.00015909536
     34100         769   1787           0.00044118365  0.00016838143  2.7048895      0.0040807954   0.00088431811  0.00015655643
     34131         769   1787           0.00044092804  0.00016859313  2.7064394      0.0040826484   0.00090856118  0.00016009067
     34162         769   1787           0.00044122827  0.00017269884  2.7079893      0.0040845017   0.00089354746  0.00015257961
     34193         769   1787           0.0004413528   0.00017043585  2.7095392      0.0040863552   0.00085449287  0.00015796615
     34224         769   1787           0.00044165168  0.00016664202  2.7110891      0.0040882089   0.00096285739  0.00017241707
     34255         769   1787           0.00044190942  0.0001714577   2.712639       0.0040900628   0.00098366206  0.00015836603
     34286         769   1788           0.00044193824  0.00016983138  2.7141889      0.004091917    0.0009311323   0.0001609266 
     34317         769   1787           0.00044136343  0.00016960945  2.7157388      0.0040937713   0.00082959361  0.00015325135
     34348         769   1787           0.00044138288  0.00016883749  2.7172887      0.0040956259   0.00083819006  0.00016139008
     34379         769   1787           0.00044170353  0.00016853889  2.7188386      0.0040974807   0.00089817139  0.00017376951
     34410         769   1787           0.00044117615  0.00017191164  2.7203885      0.0040993357   0.00091598285  0.00015766457
     34441         769   1787           0.00044172492  0.00016967987  2.7219384      0.0041011909   0.00098350279  0.00016279722
     34472         769   1786           0.00044147808  0.00016997779  2.7234883      0.0041030464   0.00092088496  0.0001604229 
     34503         769   1786           0.00044149514  0.0001724097   2.7250382      0.0041049021   0.00076332678  0.00015092955
     34534         769   1787           0.00044185326  0.00016819892  2.7265881      0.0041067579   0.00084985715  0.00016063994
     34565         769   1787           0.00044208581  0.00016905786  2.728138       0.004108614    0.0008946154   0.00016255647
     34596         769   1789           0.00044228035  0.0001701462   2.7296879      0.0041104704   0.00089395526  0.00015818015
     34627         769   1788           0.00044236691  0.00016798078  2.7312378      0.0041123269   0.00086326833  0.00016918459
     34658         769   1788           0.00044225385  0.00016827055  2.7327877      0.0041141836   0.00081135874  0.00016640028
     34689         769   1787           0.00044276162  0.00016795228  2.7343376      0.0041160406   0.00082076544  0.00016656627
     34720         769   1787           0.00044228325  0.00016897121  2.7358875      0.0041178978   0.00080796844  0.00016411346
     34751         769   1787           0.00044258964  0.00016657178  2.7374374      0.0041197552   0.00087216956  0.00017743858
     34782         769   1787           0.00044245657  0.00016922396  2.7389873      0.0041216128   0.00098628832  0.00017117987
     34813         769   1786           0.00044211261  0.00016780273  2.7405372      0.0041234706   0.00095071249  0.00017085212
     34844         769   1788           0.00044306707  0.00016780085  2.7420871      0.0041253286   0.00074912923  0.00016319682
     34875         769   1787           0.00044113483  0.0001702165   2.743637       0.0041249283   0.00074027706  0.00015919872
     34906         769   1785           0.00043878249  0.00016895299  2.7451869      0.0041220712   0.00087228561  0.00014550001
     34937         769   1785           0.00043872314  0.00016866661  2.7467368      0.0041243236   0.00082642722  0.00014794455
     34968         769   1784           0.00043722897  0.00016966833  2.7482867      0.0039353502   0.00076886549  0.00014199242
     34999         769   1784           0.00043717838  0.00016626536  2.7498366      0.0039374626   0.00079854058  0.00015066939
     35030         769   1784           0.00043748669  0.00016801681  2.7513865      0.0039395751   0.00092852024  0.00013978679
     35061         769   1785           0.00043758156  0.00016806588  2.7529364      0.0039416876   0.00090176328  0.00014931377
     35092         769   1786           0.00043847267  0.00016724032  2.7544863      0.0039438002   0.0010364841   0.00014519337
     35123         769   1785           0.00043776765  0.0001674659   2.7560362      0.0039459129   0.00075718602  0.00014841964
     35154         769   1784           0.00043740143  0.00017018229  2.7575861      0.0039480256   0.00088007226  0.00014065317
     35185         769   1783           0.00043681342  0.00017014755  2.759136       0.0039501384   0.0010017179   0.00013683055
     35216         769   1783           0.00043695654  0.00016896107  2.7606859      0.0039522512   0.00084240699  0.00014877134
     35247         769   1782           0.0004365141   0.00016800718  2.7622358      0.0039543641   0.0007994139   0.00014826201
     35278         769   1782           0.00043697446  0.00016800604  2.7637856      0.003956477    0.00082354581  0.00014995105
     35309         769   1782           0.00043695441  0.00016403372  2.7653355      0.00395859     0.00095349276  0.00014725736
     35340         769   1783           0.00043718911  0.00016779028  2.7668854      0.003960703    0.00096877379  0.0001467855 
     35371         769   1783           0.00043750219  0.00016406444  2.7684353      0.0039628161   0.00087694988  0.00015636658
     35402         769   1783           0.00043728334  0.00016812921  2.7699852      0.0039649293   0.00083865437  0.00013780481
     35433         769   1783           0.00043774575  0.00016523861  2.7715351      0.0039670425   0.00083043667  0.00015888949
     35464         769   1783           0.00043759017  0.00016478774  2.773085       0.0039691558   0.00077248263  0.00016373622
     35495         769   1782           0.00043718842  0.00016759635  2.7746349      0.0039712691   0.00083780486  0.00014595503
     35526         769   1782           0.00043741526  0.00016630546  2.7761848      0.0039733825   0.00094160949  0.00015183412
     35557         769   1782           0.00043745137  0.00016746835  2.7777347      0.003975496    0.00088121049  0.00014385878
     35588         769   1782           0.00043725744  0.00016946316  2.7792846      0.0039776094   0.0009211981   0.00014232354
     35619         769   1782           0.00043800185  0.00016777161  2.7808345      0.003979723    0.00099661534  0.00015572172
     35650         769   1780           0.00043696959  0.0001642163   2.7823844      0.0039818366   0.00081877048  0.00016951163
     35681         769   1780           0.00043745996  0.00016690635  2.7839343      0.0039839503   0.00080971281  0.00014557522
     35712         769   1781           0.00043748128  0.00017004182  2.7854842      0.003986064    0.00088792257  0.0001331666 
     35743         769   1781           0.00043725451  0.00016383089  2.7870341      0.0039881778   0.0009411545   0.00016238793
     35774         769   1781           0.00043755543  0.00016889672  2.788584       0.0039902916   0.00079861932  0.00014774378
     35805         769   1780           0.00043689982  0.00016752517  2.7901339      0.0039924055   0.00090254615  0.00014629255
     35836         769   1779           0.00043690965  0.0001668313   2.7916838      0.0039945194   0.00081746987  0.00015821096
     35867         769   1779           0.00043732469  0.00016693926  2.7932337      0.0039966334   0.00084383542  0.00014650033
     35898         769   1779           0.00043725537  0.00016257865  2.7947836      0.0039987475   0.00081107254  0.00017146691
     35929         769   1779           0.0004370844   0.00016949794  2.7963335      0.0040008616   0.00084402911  0.00014663941
     35960         769   1779           0.00043707842  0.00016295324  2.7978834      0.0040029757   0.00081603537  0.00015764143
     35991         769   1779           0.00043731322  0.00016393039  2.7994333      0.0040050899   0.00078539787  0.00016384508
     36022         769   1778           0.00043709541  0.00016690207  2.8009832      0.0040072042   0.00088206311  0.00016312344
     36053         769   1778           0.00043740427  0.00016975799  2.8025331      0.0040093185   0.00092949794  0.00014329102
     36084         769   1779           0.00043752514  0.0001666211   2.804083       0.0040114329   0.00093357344  0.00015158877
     36115         769   1779           0.00043750189  0.00016628482  2.8056329      0.0040135473   0.00087961102  0.00016186608
     36146         769   1779           0.00043744571  0.00016679975  2.8071828      0.0040156618   0.00094699219  0.00015892359
     36177         769   1779           0.00043711551  0.0001695929   2.8087327      0.0040177763   0.00096361464  0.00013956214
     36208         769   1779           0.00043698432  0.00016985935  2.8102826      0.0040198909   0.00079084276  0.00014605121
     36239         769   1779           0.0004372942   0.00016481725  2.8118325      0.0040220056   0.00079107073  0.00016063728
     36270         769   1779           0.00043756879  0.00016898873  2.8133824      0.0040241203   0.00086671988  0.000154026  
     36301         769   1778           0.00043729207  0.00016553857  2.8149323      0.004026235    0.00089567727  0.00016102653
     36332         769   1779           0.00043716417  0.00016895111  2.8164822      0.0040283498   0.00098987501  0.00015940121
     36363         769   1778           0.00043648869  0.00016882352  2.8180321      0.0040304647   0.00083242661  0.00014552015
     36394         769   1778           0.00043640249  0.00016748676  2.819582       0.0040325796   0.00084939778  0.0001486301 
     36425         769   1779           0.00043761036  0.00016916828  2.8211319      0.0040346946   0.0008583624   0.00014741147
     36456         769   1779           0.00043750327  0.00016518988  2.8226818      0.0040368096   0.00082831153  0.00016663494
     36487         769   1779           0.00043675392  0.00016844399  2.8242317      0.0040389247   0.000909032    0.0001409905 
     36518         769   1779           0.00043675786  0.00016710579  2.8257816      0.0040410398   0.00085270135  0.00014855068
     36549         769   1778           0.00043746761  0.00016922998  2.8273315      0.004043155    0.0008155479   0.00014108223
     36580         769   1778           0.00043738395  0.00016646637  2.8288814      0.0040452702   0.00082513992  0.00014873348
     36611         769   1778           0.0004368177   0.00016816654  2.8304313      0.0040473855   0.0010761114   0.00015517808
     36642         769   1777           0.00043568541  0.00016468328  2.8319812      0.0039871705   0.00086343243  0.00015521856
     36673         769   1776           0.00043486109  0.00016917911  2.8335311      0.0039893522   0.00087102107  0.00013624735
     36704         769   1775           0.00043460994  0.0001662953   2.835081       0.003991534    0.00082042541  0.00015129422
     36735         769   1775           0.00043516664  0.00016704125  2.8366309      0.0039937158   0.00084303341  0.00013900957
     36766         769   1775           0.00043519749  0.00016659398  2.8381808      0.0039958976   0.00098013147  0.00014447427
     36797         769   1772           0.00043448806  0.0001675615   2.8397307      0.0039980794   0.00089360267  0.00015114228
     36828         769   1772           0.00043441279  0.00016601396  2.8412806      0.0040002611   0.0008619247   0.00014123086
     36859         769   1772           0.00043455576  0.00016408193  2.8428305      0.0040024429   0.00089943295  0.00015277757
     36890         769   1772           0.00043480825  0.00016702327  2.8443804      0.0040046247   0.00087261903  0.00013871442
     36921         769   1773           0.00043484029  0.00016538921  2.8459303      0.0040068065   0.00096331122  0.00015265454
     36952         769   1773           0.00043491839  0.0001666974   2.8474802      0.0040089883   0.00099814586  0.00015529438
     36983         769   1774           0.00043543908  0.00016592316  2.8490301      0.00401117     0.00084842117  0.0001487967 
     37014         769   1775           0.00043565275  0.00016505909  2.85058        0.0040133518   0.00086214213  0.0001555825 
     37045         769   1774           0.00043549059  0.000163118    2.8521299      0.0040155336   0.00088553359  0.00015934485
     37076         769   1774           0.00043533568  0.00016664994  2.8536798      0.0040177154   0.00098523906  0.00014918391
     37107         769   1775           0.00043536577  0.0001652785   2.8552297      0.0040198972   0.00085479463  0.00014707988
     37138         769   1774           0.0004360585   0.00016465685  2.8567796      0.004022079    0.0010032669   0.0001606706 
     37169         769   1773           0.00043538692  0.00016569762  2.8583295      0.0040242607   0.00080300468  0.00014764892
     37200         769   1773           0.00043562149  0.00016227886  2.8598794      0.0040264425   0.00083616506  0.00016788898
     37231         769   1773           0.00043519247  0.00016307891  2.8614293      0.0040286243   0.00097104424  0.0001639347 
     37262         769   1773           0.000435424    0.00016386863  2.8629792      0.0040308061   0.00085553078  0.00014918053
     37293         769   1774           0.00043612236  0.00016543485  2.8645291      0.0040329879   0.0011154171   0.00015072854
     37324         769   1774           0.00043608622  0.00016586131  2.866079       0.0040351697   0.00083372845  0.00014911354
     37355         769   1774           0.00043574738  0.00016197568  2.8676289      0.0040373514   0.00081886051  0.00017099431
     37386         769   1774           0.00043585709  0.00016587369  2.8691788      0.0040395332   0.00085532252  0.00015010752
     37417         769   1774           0.0004360126   0.00016601036  2.8707287      0.004041715    0.00084192166  0.00015534586
     37448         769   1773           0.00043567428  0.00016405832  2.8722786      0.0040438968   0.00087732135  0.0001634397 
     37479         769   1774           0.00043615118  0.00016627325  2.8738285      0.0040460786   0.00084546961  0.00015165523
     37510         769   1773           0.00043556084  0.00016494486  2.8753784      0.0040482604   0.0008892368   0.0001558665 
     37541         769   1773           0.00043576915  0.00016707451  2.8769283      0.0040504422   0.0011256607   0.00015547992
     37572         769   1773           0.000435299    0.00016414262  2.8784782      0.0040526239   0.00079713305  0.00015987715
     37603         769   1773           0.00043558518  0.00016432848  2.8800281      0.0040548057   0.00085370999  0.00015064919
     37634         769   1775           0.00043636591  0.00016571925  2.881578       0.0040569875   0.0008559081   0.00016090602
     37665         769   1774           0.00043658777  0.00016351434  2.8831279      0.0040591693   0.00085809783  0.0001654154 
     37696         769   1774           0.00043635386  0.00016512106  2.8846778      0.0040613511   0.00089387746  0.00016017675
     37727         769   1774           0.00043585084  0.00016536198  2.8862277      0.0040635329   0.000813442    0.00016044528
     37758         769   1774           0.00043655363  0.00016487462  2.8877776      0.0040657147   0.00084907114  0.00016781402
     37789         769   1773           0.00043588579  0.00016526503  2.8893275      0.0040678965   0.00082777789  0.00016626128
     37820         769   1773           0.00043611032  0.0001645615   2.8908774      0.0040700782   0.0011216972   0.00016345546
     37851         769   1773           0.0004362114   0.00016211436  2.8924273      0.00407226     0.0008603472   0.00017041935
     37882         769   1774           0.0004364729   0.00016135367  2.8939772      0.0040744418   0.00097696158  0.00017591203
     37913         769   1774           0.00043651407  0.00016527235  2.8955271      0.0040766236   0.00089934992  0.0001565794 
     37944         769   1775           0.00043730377  0.00016414295  2.897077       0.0040788054   0.00085806234  0.00015753428
     37975         769   1773           0.00043634897  0.00016812797  2.8986269      0.0040809872   0.00085645239  0.00014565375
     38006         769   1774           0.00043636462  0.00016548424  2.9001768      0.004083169    0.00082394504  0.00015267569
     38037         769   1773           0.00043625554  0.0001615118   2.9017267      0.0040853508   0.00093888232  0.00017450791
     38068         769   1773           0.00043620415  0.0001647917   2.9032766      0.0040875325   0.00084059086  0.00016080291
     38099         769   1773           0.00043649096  0.00016555539  2.9048265      0.0040897143   0.00089041012  0.00016047538
     38130         769   1773           0.00043695712  0.00016204439  2.9063764      0.0040918961   0.00088868041  0.00017428821
     38161         769   1772           0.00043541296  0.00016617617  2.9079263      0.0040940779   0.00092404692  0.00015530811
     38192         769   1770           0.00043544213  0.00016401696  2.9094762      0.0040962597   0.00085048322  0.00016642015
     38223         769   1769           0.00043512457  0.00016449509  2.9110261      0.0040984415   0.00079001118  0.00016323289
     38254         769   1769           0.00043513915  0.00016623359  2.912576       0.0041006233   0.00087911901  0.00015140799
     38285         769   1770           0.00043548594  0.00016740376  2.9141259      0.0041028051   0.0010910528   0.00015016213
     38316         769   1770           0.00043495085  0.00016670145  2.9156758      0.0041049869   0.0010576461   0.00015199399
     38347         769   1770           0.00043503197  0.00016219157  2.9172257      0.0041071686   0.00092376441  0.00016463354
     38378         769   1770           0.00043531941  0.00016442965  2.9187756      0.0041093504   0.00095499152  0.00015278406
     38409         769   1770           0.00043498814  0.00016603948  2.9203255      0.0041115322   0.00095204801  0.00015121608
     38440         769   1770           0.00043526317  0.00016390565  2.9218754      0.004113714    0.00080281684  0.00016705594
     38471         769   1770           0.0004352932   0.0001642886   2.9234253      0.0041158958   0.00090183691  0.00016272787
     38502         769   1769           0.00043537433  0.00016525166  2.9249752      0.0041180776   0.00082170655  0.00015772993
     38533         769   1769           0.00043415326  0.00016203009  2.9265251      0.0041202594   0.00084258875  0.00015893905
     38564         769   1769           0.00043406127  0.00016552425  2.928075       0.0041224412   0.00091613817  0.00015354701
     38595         769   1768           0.00043356722  0.00016367772  2.9296249      0.004124623    0.00092676079  0.00016067859
     38626         769   1767           0.00043218746  0.00016263451  2.9311748      0.0040839739   0.00091766688  0.00015407258
     38657         769   1767           0.000432072    0.00016697728  2.9327247      0.0040855403   0.00091404935  0.00013914271
     38688         769   1768           0.00043256132  0.00016263115  2.9342746      0.0040871069   0.00094982598  0.0001500465 
     38719         769   1768           0.00043243044  0.00016499449  2.9358245      0.0040886738   0.00080292436  0.00015086619
     38750         769   1769           0.00043308788  0.0001652686   2.9373744      0.0040902409   0.00087148832  0.0001510391 
     38781         769   1769           0.00043287957  0.00016364853  2.9389243      0.0040918082   0.00091266432  0.00015119817
     38812         769   1770           0.00043333247  0.00016294348  2.9404742      0.0040933757   0.00096673655  0.00016099841
     38843         769   1769           0.00043285297  0.00016294426  2.9420241      0.0040949435   0.00087309228  0.00015357294
     38874         769   1769           0.00043311583  0.00016364877  2.943574       0.0040965115   0.00093565562  0.00015579114
     38905         769   1770           0.00043366116  0.00016292351  2.9451239      0.0040980797   0.00084269532  0.00016476902
     38936         769   1770           0.00043331026  0.00016292033  2.9466738      0.0040996481   0.00089284103  0.00015402767
     38967         769   1770           0.00043365274  0.00016417381  2.9482237      0.0041012168   0.00089874917  0.00015590333
     38998         769   1770           0.00043391795  0.00016136234  2.9497736      0.0041027856   0.00085667141  0.00016503677
     39029         769   1771           0.00043399569  0.00016302391  2.9513235      0.0041043548   0.0009616653   0.00015768654
     39060         769   1771           0.00043400312  0.00016548569  2.9528734      0.0041059241   0.00088331258  0.00015823332
     39091         769   1771           0.00043408463  0.0001609349   2.9544233      0.0041074936   0.0008286114   0.00016936935
     39122         769   1771           0.00043439212  0.00016304649  2.9559732      0.0041090634   0.00090610721  0.00016286251
     39153         769   1770           0.00043398069  0.00016226437  2.9575231      0.0041106334   0.00084766022  0.0001522699 
     39184         769   1770           0.00043413058  0.00016379238  2.959073       0.0041122037   0.00091221363  0.00015524082
     39215         769   1770           0.00043393841  0.00016655191  2.9606229      0.0041137741   0.00078334805  0.00014939163
     39246         769   1769           0.00043349802  0.00016566175  2.9621728      0.0041153448   0.00087378674  0.00015309009
     39277         769   1769           0.00043430213  0.00016230633  2.9637227      0.0041169157   0.00086062105  0.00015830528
     39308         769   1769           0.00043400285  0.0001614544   2.9652726      0.0041184868   0.00085872176  0.0001609477 
     39339         769   1768           0.00043407955  0.00016035442  2.9668225      0.0041200581   0.001091332    0.0001648205 
     39370         769   1768           0.00043308149  0.00016054063  2.9683724      0.0041216297   0.00089241363  0.00016042303
     39401         769   1768           0.00043277101  0.00016459985  2.9699223      0.0041232015   0.00092817576  0.00014930501
     39432         769   1767           0.000432964    0.00016486359  2.9714722      0.0041247735   0.00084938251  0.00014075014
     39463         769   1765           0.00042965156  0.0001616588   2.9730221      0.0040068696   0.00083448965  0.00014268175
     39494         769   1765           0.00042977965  0.00016120669  2.974572       0.0040081258   0.00087793994  0.00014312771
     39525         769   1766           0.00043005622  0.00016466888  2.9761219      0.0040093822   0.00094966463  0.00013522527
     39556         769   1766           0.00043041157  0.00016254549  2.9776718      0.004010639    0.00088933732  0.00014071256
     39587         769   1766           0.00043046345  0.00016269505  2.9792217      0.0040118959   0.00081015296  0.0001347002 
     39618         769   1766           0.00043072957  0.00016069676  2.9807716      0.0040131532   0.00084706664  0.00015183613
     39649         769   1766           0.00043022324  0.00016043021  2.9823215      0.0040144107   0.00081749343  0.00015006038
     39680         769   1766           0.00043042166  0.00016271314  2.9838714      0.0040156684   0.00080619263  0.000139705  
     39711         769   1766           0.00043014021  0.00016542591  2.9854213      0.0040169264   0.00093127674  0.000137558  
     39742         769   1766           0.00043053567  0.00016585458  2.9869712      0.0040181847   0.00080231334  0.00013776316
     39773         769   1766           0.00043056803  0.00016466924  2.9885211      0.0040194432   0.0008241257   0.00013588876
     39804         769   1767           0.00043081726  0.00016209029  2.990071       0.004020702    0.0010043763   0.00014821538
     39835         769   1767           0.00043065361  0.00016356114  2.9916209      0.0040219611   0.00089656875  0.0001368863 
     39866         769   1768           0.00043104023  0.00016353079  2.9931708      0.0040232204   0.00086849654  0.00013509789
     39897         769   1768           0.00043096312  0.00016489342  2.9947207      0.00402448     0.00090814598  0.00013683135
     39928         769   1768           0.00043098476  0.00016259123  2.9962706      0.0040257398   0.00085270106  0.00013632732
     39959         769   1767           0.00043061982  0.00016433698  2.9978205      0.0040269999   0.00089637013  0.0001330307 
     39990         769   1766           0.00043046029  0.00016264986  2.9993704      0.0040282602   0.00092801807  0.00014757457
     40021         769   1766           0.00043055769  0.00016455533  3.0009203      0.0040295208   0.00091175777  0.00013672574
     40052         769   1766           0.00043069183  0.0001631302   3.0024702      0.0040307817   0.00091837253  0.00013868807
     40083         769   1766           0.00043089467  0.00016146077  3.0040201      0.0040320428   0.0010359089   0.00015417848
     40114         769   1766           0.0004308938   0.00016077556  3.00557        0.0040333041   0.00088086448  0.00015468875
     40145         769   1766           0.00043065198  0.00016084248  3.0071199      0.0040345658   0.00095415031  0.00015721762
     40176         769   1764           0.00042917593  0.00016041942  3.0086698      0.0040358276   0.00083425268  0.00014754133
     40207         769   1764           0.00042958166  0.00016067252  3.0102197      0.0040370898   0.00087445829  0.00015748884
     40238         769   1762           0.0004291754   0.00016080148  3.0117696      0.0040383522   0.00093837629  0.00014811501
     40269         769   1763           0.00042956036  0.00016252077  3.0133195      0.0040396148   0.00093558511  0.00014217438
     40300         769   1762           0.00042919269  0.00016317019  3.0148694      0.0040408777   0.00083435257  0.00015033213
     40331         769   1761           0.00042879266  0.00016139731  3.0164193      0.0040421409   0.00087770803  0.00014103092
     40362         769   1761           0.0004285466   0.00016333684  3.0179692      0.0040434043   0.00086356157  0.00014171153
     40393         769   1760           0.00042758094  0.00016209389  3.0195191      0.0040446679   0.0011469606   0.00013568675
     40424         769   1760           0.00042737196  0.00016346899  3.021069       0.0040459318   0.00083578746  0.00013538398
     40455         769   1760           0.00042773661  0.00016212934  3.0226189      0.004047196    0.0009103226   0.00013700539
     40486         769   1759           0.00042753075  0.00016056396  3.0241688      0.0040484604   0.00082952076  0.00013466486
     40517         769   1760           0.00042825527  0.00016199435  3.0257187      0.0040497251   0.00095022792  0.0001297911 
     40548         769   1760           0.00042850416  0.00015980384  3.0272686      0.00405099     0.00097489038  0.00014386368
     40579         769   1760           0.00042756934  0.00016242533  3.0288185      0.0040522552   0.00093780097  0.00013155803
     40610         769   1760           0.00042786889  0.00016056373  3.0303684      0.0040535206   0.00094044662  0.00014291216
     40641         769   1759           0.00042716077  0.00016029988  3.0319183      0.0040547863   0.00085005364  0.00013950271
     40672         769   1759           0.00042741615  0.00016413814  3.0334682      0.0040560523   0.00086160217  0.00013340139
     40703         769   1758           0.00042682584  0.00016100428  3.0350181      0.0040573184   0.0010070461   0.00014249379
     40734         769   1758           0.00042692863  0.00015986633  3.036568       0.0040585849   0.000893623    0.00014931098
     40765         769   1756           0.00042589613  0.00016050301  3.0381179      0.0040598516   0.00082905323  0.00014462292
     40796         769   1755           0.00042572567  0.00016153512  3.0396678      0.0040611185   0.00084068627  0.00014526238
     40827         769   1756           0.0004259481   0.0001597834   3.0412177      0.0040623857   0.00082846248  0.00015887955
     40858         769   1756           0.00042642601  0.00016041806  3.0427676      0.0040636532   0.00090884153  0.00014533116
     40889         769   1757           0.00042672549  0.00015715866  3.0443175      0.0040649209   0.00093461359  0.00016164435
     40920         769   1755           0.00042598219  0.00015827795  3.0458674      0.0040661888   0.00085060458  0.00015739741
     40951         769   1756           0.00042651903  0.00015661582  3.0474173      0.004067457    0.0010169029   0.00016577627
     40982         769   1756           0.00042617888  0.00015886867  3.0489672      0.0040687254   0.00095052152  0.00014898647
     41013         769   1756           0.00042603926  0.00016326479  3.0505171      0.0040699941   0.00091525977  0.00012796725
     41044         769   1754           0.00042590717  0.00016119767  3.052067       0.0040712631   0.00087467627  0.00014326934
     41075         769   1755           0.00042624081  0.00016335728  3.0536169      0.0040725323   0.00091289794  0.00012836875
     41106         769   1755           0.00042661398  0.00015831347  3.0551668      0.0040738017   0.00090762514  0.00015050529
     41137         769   1756           0.00042643716  0.00016061521  3.0567167      0.0040750714   0.00088611716  0.00014345379
     41168         769   1756           0.00042663543  0.00015799769  3.0582666      0.0040763413   0.00088998391  0.00016199387
     41199         769   1754           0.00042655272  0.00015980227  3.0598165      0.0040776115   0.00089348041  0.00014687409
     41230         769   1755           0.00042669139  0.00015806469  3.0613664      0.0040788819   0.00098545112  0.00014843174
     41261         769   1755           0.00042693786  0.00015794743  3.0629163      0.0040801526   0.00092876898  0.00015409837
     41292         769   1755           0.00042640565  0.00015697028  3.0644662      0.0040814235   0.00081282556  0.00015421803
     41323         769   1755           0.00042662888  0.00015872144  3.0660161      0.0040826947   0.0010039492   0.0001559114 
     41354         769   1755           0.00042676021  0.00016100099  3.067566       0.0040839661   0.00088647112  0.00014036267
     41385         769   1756           0.00042682325  0.00016099641  3.0691159      0.0040852378   0.0008721904   0.0001507584 
     41416         769   1756           0.00042738506  0.00015647941  3.0706658      0.0040865097   0.00094777448  0.00016591196
     41447         769   1757           0.00042737886  0.00016234068  3.0722157      0.0040877819   0.00086677153  0.00014932512
     41478         769   1756           0.00042696651  0.00015731477  3.0737656      0.0040890543   0.00074516356  0.00015978996
     41509         769   1755           0.00042622432  0.0001593785   3.0753155      0.0040903269   0.00088197634  0.00015140363
     41540         769   1754           0.00042611794  0.00016114789  3.0768654      0.0040915998   0.0008801082   0.00014456979
     41571         769   1754           0.00042631308  0.00015831852  3.0784153      0.004092873    0.00083753807  0.00015537309
     41602         769   1755           0.0004262859   0.00015955024  3.0799652      0.0040941463   0.00089126557  0.00014725187
     41633         769   1755           0.000426292    0.00015910589  3.0815151      0.00409542     0.00094741674  0.00015656138
     41664         769   1755           0.00042650202  0.00016018661  3.083065       0.0040966938   0.0010139799   0.00015220352
     41695         769   1753           0.00042649326  0.00015774996  3.0846148      0.0040981431   0.00087944602  0.00015144274
     41726         769   1753           0.00042606167  0.00015670878  3.0861647      0.0041001092   0.00084066347  0.00015118541
     41757         769   1753           0.0004262243   0.00016180322  3.0877146      0.0041020753   0.00092372422  0.00014581303
     41788         769   1754           0.00042657674  0.00015862169  3.0892645      0.0041040415   0.00092494235  0.00015977096
     41819         769   1752           0.000426109    0.00015941588  3.0908144      0.0041060078   0.00083785109  0.00015144308
     41850         769   1753           0.00042596486  0.00015895449  3.0923643      0.004107974    0.00091487623  0.00016628355
     41881         769   1753           0.00042620353  0.000158936    3.0939142      0.0041099404   0.0010473739   0.00016347636
     41912         769   1753           0.00042612324  0.00015949152  3.0954641      0.0041119067   0.00092954966  0.00015833143
     41943         769   1754           0.00042654058  0.00015952165  3.097014       0.0041138731   0.00081913929  0.00015630633
     41974         769   1754           0.00042650881  0.00015670041  3.0985639      0.0041158396   0.00098412526  0.00016207402
     42005         769   1754           0.00042562788  0.00015810526  3.1001138      0.0041178061   0.00094444649  0.00016378953
     42036         769   1754           0.00042535392  0.00016207948  3.1016637      0.0041197726   0.00085221813  0.00014621017
     42067         769   1754           0.00042597514  0.00016011416  3.1032136      0.0041217392   0.00090044055  0.00015270106
     42098         769   1754           0.00042579179  0.00016141603  3.1047635      0.0041237059   0.00091295627  0.00014940164
     42129         769   1753           0.00042481267  0.0001595644   3.1063134      0.0041158312   0.00094744503  0.00014761394
     42160         769   1753           0.00042441816  0.00015863683  3.1078633      0.0041171089   0.00096989951  0.00014377087
     42191         769   1753           0.00042472784  0.00015914632  3.1094132      0.0041183869   0.00084004409  0.00014703737
     42222         769   1754           0.00042509627  0.00015907225  3.1109631      0.0041196651   0.00078163206  0.00014767356
     42253         769   1754           0.00042525942  0.00015754976  3.112513       0.0041209436   0.00098128288  0.00015875867
     42284         769   1752           0.00042445806  0.00015805203  3.1140629      0.0041222223   0.00082417932  0.00014890836
     42315         769   1752           0.00042443024  0.00015843242  3.1156128      0.0041235013   0.00096721423  0.00014775314
     42346         769   1752           0.00042442851  0.00016360634  3.1171627      0.0041247805   0.00086000381  0.00013131816
     42377         769   1751           0.0004228946   0.00015818728  3.1187126      0.0041240688   0.00097590034  0.00015503183
     42408         769   1750           0.00042120774  0.00016120506  3.1202625      0.0040555009   0.00090160587  0.00012470552
     42439         769   1750           0.00042069819  0.00016084496  3.1218124      0.0040574507   0.00091471895  0.00013323546
     42470         769   1750           0.00042064027  0.00015743035  3.1233623      0.0040594006   0.00093464488  0.00014142379
     42501         769   1750           0.00042106356  0.00015987881  3.1249122      0.0040613504   0.00097426827  0.00012754905
     42532         769   1750           0.00042120454  0.00016066865  3.1264621      0.0040633003   0.00086769554  0.00012742843
     42563         769   1751           0.00042190264  0.00015910152  3.128012       0.0040652502   0.00089710349  0.00013709566
     42594         769   1751           0.00042191121  0.0001562515   3.1295619      0.0040672002   0.00091470951  0.00014068733
     42625         769   1751           0.00042162138  0.0001590927   3.1311118      0.0040691502   0.00081270039  0.00013043185
     42656         769   1751           0.00042140463  0.0001602374   3.1326617      0.0040711002   0.00092610175  0.00012683064
     42687         769   1752           0.00042198134  0.0001575109   3.1342116      0.0040730503   0.00080782715  0.00013619609
     42718         769   1751           0.00042194006  0.00016234021  3.1357615      0.0040750003   0.00092849098  0.00012875355
     42749         769   1750           0.00042203007  0.00015963567  3.1373114      0.0040769505   0.0010087583   0.00012859452
     42780         769   1750           0.0004216794   0.00015997881  3.1388613      0.0040789006   0.00086522499  0.00013663095
     42811         769   1749           0.00042096918  0.00016022945  3.1404112      0.0040808508   0.00089138534  0.00013297362
     42842         769   1749           0.0004208711   0.00016273628  3.1419611      0.004082801    0.00094324562  0.00012589399
     42873         769   1748           0.00042116123  0.00015692556  3.143511       0.0040847512   0.00090833354  0.00015046088
     42904         769   1747           0.00042041321  0.00015851752  3.1450609      0.0040867015   0.00080321088  0.00013481242
     42935         769   1748           0.00042090454  0.00015635442  3.1466108      0.0040886518   0.00091236488  0.0001447193 
     42966         769   1748           0.00042109451  0.00015737065  3.1481607      0.0040906021   0.00088056116  0.00013769844
     42997         769   1747           0.00042008455  0.00015701513  3.1497106      0.0040925525   0.00083728788  0.00014088015
     43028         769   1747           0.00042056155  0.0001572796   3.1512605      0.0040945028   0.0008557074   0.00014448638
     43059         769   1745           0.00041891217  0.0001583848   3.1528104      0.0040964533   0.00091921532  0.00013243693
     43090         769   1744           0.00041862561  0.0001594655   3.1543603      0.0040984037   0.00095149947  0.00012292608
     43121         769   1743           0.00041844905  0.00015909143  3.1559102      0.0041003542   0.00085016165  0.0001319867 
     43152         769   1743           0.0004181054   0.00015751409  3.1574601      0.0041023047   0.00095826009  0.00014021452
     43183         769   1743           0.00041845755  0.00015823382  3.15901        0.0041042552   0.00079549408  0.00013104942
     43214         769   1743           0.00041811578  0.00015714127  3.1605599      0.0041062058   0.00088111041  0.00013195945
     43245         769   1744           0.00041870762  0.0001582157   3.1621098      0.0041081564   0.00092874447  0.00013100297
     43276         769   1744           0.00041859241  0.00015435753  3.1636597      0.004110107    0.00093515073  0.00014443847
     43307         769   1744           0.00041860636  0.00015953032  3.1652096      0.0041120577   0.00086480367  0.00013004614
     43338         769   1744           0.00041878502  0.00015625398  3.1667595      0.0041140084   0.00096434057  0.00013647612
     43369         769   1744           0.00041843958  0.00015864622  3.1683094      0.0041159591   0.0008973183   0.0001252354 
     43400         769   1744           0.00041903239  0.00015740174  3.1698593      0.0041179098   0.00089281304  0.00012563811
     43431         769   1743           0.00041870183  0.0001546219   3.1714092      0.0041198606   0.00088232617  0.00013945902
     43462         769   1743           0.00041907379  0.00015835051  3.1729591      0.0041218114   0.00085649136  0.00013269619
     43493         769   1744           0.00041900148  0.00015421508  3.174509       0.0041237622   0.00088148999  0.00013714861
     43524         769   1744           0.00041808291  0.00015598292  3.1760589      0.0041144023   0.0009480626   0.00013186998
     43555         769   1743           0.00041745775  0.00015806609  3.1776088      0.0041161837   0.00086441873  0.00012400178
     43586         769   1743           0.00041798344  0.00015730873  3.1791587      0.0041179652   0.00093126214  0.00011828227
     43617         769   1744           0.00041848219  0.00015493072  3.1807086      0.0041197468   0.00096134435  0.00013296317
     43648         769   1744           0.0004180418   0.00015618543  3.1822585      0.0041215285   0.00096936226  0.00012904723
     43679         769   1744           0.00041798264  0.00015749368  3.1838084      0.0041233103   0.001007739    0.00012049728
     43710         769   1744           0.00041823411  0.00015277683  3.1853583      0.0041250921   0.00086648416  0.000137143  
     43741         769   1743           0.00041619324  0.0001599931   3.1869082      0.0039427228   0.00089031393  0.00010049577
     43772         769   1743           0.00041632204  0.00015964375  3.1884581      0.0039444319   0.000996737    0.00010930033
     43803         769   1741           0.00041622166  0.0001580447   3.190008       0.0039461411   0.00093143635  0.00011865247
     43834         769   1740           0.00041498185  0.00015659516  3.1915579      0.0039478504   0.0007856684   0.00011507225
     43865         769   1741           0.000415086    0.00015830023  3.1931078      0.0039495598   0.00085370729  0.00011913544
     43896         769   1741           0.00041527106  0.00015856401  3.1946577      0.0039512693   0.00088479214  0.00010900469
     43927         769   1741           0.00041540355  0.00015715084  3.1962076      0.0039529789   0.00085024622  0.00012379374
     43958         769   1740           0.0004153868   0.00015917628  3.1977575      0.0039546885   0.00089619802  0.00010535374
     43989         769   1738           0.00041493078  0.00015777405  3.1993074      0.0039563983   0.0008880612   0.00011883478
     44020         769   1738           0.00041491993  0.00015644106  3.2008573      0.0039581081   0.0009717608   0.00012372648
     44051         769   1738           0.00041519531  0.00015727384  3.2024072      0.0039598181   0.00078834516  0.00011676421
     44082         769   1738           0.00041518385  0.00015345623  3.2039571      0.0039615281   0.00099223733  0.00012771176
     44113         769   1737           0.00041507022  0.00015481682  3.205507       0.0039632382   0.00087579621  0.00012647862
     44144         769   1738           0.0004152069   0.00015740062  3.2070569      0.0039649484   0.00094014723  0.0001122133 
     44175         769   1738           0.00041499162  0.00015571551  3.2086068      0.0039666587   0.00087593308  0.00012021404
     44206         769   1739           0.00041530205  0.00015593675  3.2101567      0.0039683691   0.00096775394  0.00011659094
     44237         769   1740           0.00041547617  0.00015889331  3.2117066      0.0039700795   0.00085725174  0.00011956172
     44268         769   1740           0.0004156322   0.00015609637  3.2132565      0.0039717901   0.00089047578  0.00011672919
     44299         769   1740           0.0004159007   0.00015712621  3.2148064      0.0039735007   0.00097785495  0.0001136107 
     44330         769   1740           0.00041586997  0.00015898095  3.2163563      0.0039752115   0.00096218327  0.00011043481
     44361         769   1740           0.0004157372   0.00015636177  3.2179062      0.0039769223   0.00079862058  0.00012893308
     44392         769   1740           0.00041570209  0.00015946708  3.2194561      0.0039786332   0.00088863924  0.000113065  
     44423         769   1741           0.00041592905  0.00015782206  3.221006       0.0039803442   0.00086276907  0.00011703804
     44454         769   1741           0.00041612175  0.00015790025  3.2225559      0.0039820553   0.00085256162  0.00012487944
     44485         769   1739           0.00041529651  0.00015734299  3.2241058      0.0039837665   0.00091884496  0.00011679959
     44516         769   1739           0.00041542447  0.00016051417  3.2256557      0.0039854777   0.00086618843  0.00010929885
     44547         769   1739           0.0004153164   0.00015920836  3.2272056      0.0039871891   0.00095968003  0.00011688865
     44578         769   1740           0.00041595176  0.00015522601  3.2287555      0.0039889005   0.00095799632  0.00012494327
     44609         769   1740           0.00041585853  0.00015751369  3.2303054      0.003990612    0.00086570632  0.00011354274
     44640         769   1741           0.0004159642   0.00015632185  3.2318553      0.0039923236   0.00081926934  0.00011718447
     44671         769   1741           0.00041624881  0.00015496564  3.2334052      0.0039940353   0.00087304612  0.00012534626
     44702         769   1739           0.0004154975   0.00015626865  3.2349551      0.0039957471   0.00082948902  0.00013418512
     44733         769   1740           0.00041562388  0.00016019234  3.236505       0.003997459    0.00086350441  0.00010501584
     44764         769   1739           0.00041564361  0.00015634493  3.2380549      0.0039991709   0.00076657137  0.00012643457
     44795         769   1739           0.00041571379  0.00015674902  3.2396048      0.004000883    0.0007921411   0.00011699541
     44826         769   1739           0.00041564868  0.00015845743  3.2411547      0.0040025951   0.00096344053  0.00012285019
     44857         769   1740           0.00041642885  0.00015339967  3.2427046      0.0040043073   0.00086111803  0.00012843052
     44888         769   1739           0.00041586138  0.00015869871  3.2442545      0.0040060196   0.00090630798  0.0001117329 
     44919         769   1739           0.00041606338  0.0001602674   3.2458044      0.004007732    0.00079510456  0.00011166395
     44950         769   1738           0.00041510768  0.00015554104  3.2473543      0.0040094445   0.00090801791  0.00012856842
     44981         769   1739           0.00041566197  0.0001576285   3.2489042      0.004011157    0.00088001074  0.00011038977
     45012         769   1739           0.00041575155  0.00015493798  3.2504541      0.0040128697   0.00091275202  0.0001251109 
     45043         769   1738           0.00041563541  0.0001541003   3.252004       0.0040145824   0.0010254325   0.00012820181
     45074         769   1738           0.00041573409  0.00015920255  3.2535539      0.0040162952   0.00083343866  0.00011053177
     45105         769   1738           0.00041556408  0.00015783696  3.2551038      0.0040180081   0.00087468515  0.00011810401
     45136         769   1738           0.00041557817  0.00015553166  3.2566537      0.0040197211   0.00084557875  0.00012283848
     45167         769   1738           0.00041539963  0.00015846372  3.2582036      0.0040214342   0.00089756667  0.00011630477
     45198         769   1737           0.00041545155  0.00015421865  3.2597535      0.0040231473   0.00086287018  0.00013112523
     45229         769   1736           0.00041493457  0.00015573013  3.2613034      0.0040248606   0.0008716775   0.00012713042
     45260         769   1736           0.00041466301  0.00015606423  3.2628533      0.0040265739   0.00088896494  0.0001168989 
     45291         769   1736           0.00041471495  0.00015824728  3.2644032      0.0040282873   0.00080154297  0.00011707299
     45322         769   1736           0.00041468444  0.00015585971  3.2659531      0.0040300008   0.00084109953  0.00012678227
     45353         769   1737           0.00041518309  0.00015389184  3.267503       0.0040317144   0.0008684292   0.0001270954 
     45384         769   1737           0.00041539711  0.00015430019  3.2690529      0.0040334281   0.00090548095  0.00013241086
     45415         769   1737           0.00041545356  0.00015546658  3.2706028      0.0040351418   0.00081529407  0.00012954541
     45446         769   1737           0.00041537233  0.00015623605  3.2721527      0.0040368556   0.00092117938  0.00011936092
     45477         769   1737           0.00041549851  0.00015287351  3.2737026      0.0040385696   0.00093396617  0.00013329452
     45508         769   1737           0.00041562156  0.00015490164  3.2752525      0.0040402836   0.00092934532  0.00012631519
     45539         769   1737           0.00041563791  0.00015371999  3.2768024      0.0040419977   0.00092262274  0.00013958811
     45570         769   1737           0.00041551851  0.00015937862  3.2783523      0.0040437118   0.00080422268  0.00012044812
     45601         769   1737           0.00041549557  0.00015633347  3.2799022      0.0040454261   0.00090013743  0.00012773611
     45632         769   1735           0.00041476901  0.00015552199  3.2814521      0.0040471404   0.00091872566  0.00012742612
     45663         769   1734           0.00041457175  0.0001571035   3.283002       0.0040488548   0.00082458014  0.00011391443
     45694         769   1734           0.00041463594  0.00015559066  3.2845519      0.0040505693   0.00089083287  0.00012343059
     45725         769   1735           0.00041475889  0.00015446767  3.2861018      0.0040522839   0.00097665997  0.00012460896
     45756         769   1735           0.00041454879  0.00015574032  3.2876517      0.0040539986   0.00088706085  0.00012481789
     45787         769   1735           0.00041498299  0.00015525838  3.2892016      0.0040557134   0.00084682881  0.00012898537
     45818         769   1736           0.00041502005  0.0001536106   3.2907515      0.0040574282   0.00089199015  0.00012821545
     45849         769   1735           0.00041487862  0.00015497346  3.2923014      0.0040591431   0.00088029985  0.0001286014 
     45880         769   1735           0.00041520485  0.00015431242  3.2938513      0.0040608581   0.00078506617  0.00013152489
     45911         769   1734           0.00041495557  0.00015586966  3.2954012      0.0040625732   0.00088595414  0.00011750399
     45942         769   1734           0.00041539437  0.00015548943  3.2969511      0.0040642884   0.0009921142   0.0001336868 
     45973         769   1734           0.0004152858   0.00015457179  3.298501       0.0040660036   0.00087817873  0.00012483283
     46004         769   1734           0.00041519822  0.00015592868  3.3000509      0.004067719    0.00099274795  0.00012105641
     46035         769   1734           0.00041522463  0.0001547327   3.3016008      0.0040694344   0.00087112592  0.00012125699
     46066         769   1733           0.00041443579  0.00015476044  3.3031507      0.0040711499   0.00084138081  0.00013394378
     46097         769   1733           0.00041429354  0.00015360094  3.3047006      0.0040728655   0.00098387507  0.00012889714
     46128         769   1733           0.0004146666   0.00015350732  3.3062505      0.0040745811   0.0009456192   0.00013384484
     46159         769   1734           0.00041465716  0.00015286852  3.3078004      0.0040762969   0.00091138181  0.00013499368
     46190         769   1736           0.00041522026  0.0001541772   3.3093503      0.0040780127   0.00096650033  0.00012723738
     46221         769   1735           0.00041369171  0.00015648526  3.3109002      0.0039774309   0.00086860601  0.00011775998
     46252         769   1735           0.0004139111   0.00015611952  3.3124501      0.0039790251   0.00080911796  0.00012489604
     46283         769   1735           0.00041350467  0.00015577523  3.314          0.0039806195   0.00097347972  0.00011892431
     46314         769   1736           0.00041390777  0.00015923314  3.3155499      0.003982214    0.00092042191  0.00010619951
     46345         769   1736           0.00041390563  0.00015753257  3.3170998      0.0039838086   0.00091323034  0.0001176339 
     46376         769   1737           0.00041417179  0.00015519915  3.3186497      0.0039854033   0.00094019418  0.00013099284
     46407         769   1738           0.00041435961  0.0001567797   3.3201996      0.003986998    0.0010023849   0.00011963928
     46438         769   1739           0.00041448732  0.00015757909  3.3217495      0.0039885929   0.00085870648  0.0001148417 
     46469         769   1740           0.00041491981  0.00015612877  3.3232994      0.003990188    0.00098973116  0.00012919328
     46500         769   1740           0.00041502337  0.00015776152  3.3248493      0.0039917831   0.00091505207  0.00011707214
     46531         769   1740           0.00041496987  0.00015575916  3.3263992      0.0039933783   0.00092162516  0.00012663267
     46562         769   1740           0.0004150515   0.00015322648  3.3279491      0.0039949736   0.00084460521  0.00013652983
     46593         769   1740           0.00041517147  0.00015760671  3.329499       0.003996569    0.00089348551  0.00012145197
     46624         769   1740           0.00041528273  0.0001542818   3.3310489      0.0039981646   0.00084055859  0.00013553733
     46655         769   1740           0.00041559848  0.00015550122  3.3325988      0.0039997602   0.0008963742   0.00013026519
     46686         769   1740           0.00041532794  0.00015582422  3.3341487      0.004001356    0.00085459573  0.0001240312 
     46717         769   1740           0.00041563462  0.00015703508  3.3356986      0.0040029518   0.0010032872   0.00012174506
     46748         769   1740           0.00041563156  0.00015201287  3.3372485      0.0040045478   0.00086364743  0.00014375786
     46779         769   1740           0.00041541284  0.00015774371  3.3387984      0.0040061438   0.00092981336  0.0001209869 
     46810         769   1739           0.00041542315  0.00015271129  3.3403483      0.00400774     0.00087850686  0.0001421334 
     46841         769   1738           0.00041525594  0.00015463845  3.3418982      0.0040093363   0.00091941255  0.00013077916
     46872         769   1737           0.0004150849   0.00015661958  3.3434481      0.0040109327   0.00086669126  0.00012793052
     46903         769   1736           0.00041465451  0.00015452693  3.344998       0.0040125291   0.00093220064  0.00013374536
     46934         769   1736           0.00041504928  0.00015229683  3.3465479      0.0040141257   0.00087330898  0.00013701433
     46965         769   1736           0.00041480076  0.00015565468  3.3480978      0.0040157224   0.00083860154  0.00011939326
     46996         769   1737           0.00041520754  0.00015532776  3.3496477      0.0040173192   0.00098911353  0.00012797495
     47027         769   1737           0.00041498254  0.0001550275   3.3511976      0.0040189161   0.00090715278  0.00012393991
     47058         769   1737           0.00041578479  0.00015454746  3.3527475      0.0040205131   0.00095405506  0.00013133479
     47089         769   1737           0.00041548554  0.00015301338  3.3542974      0.0040221102   0.00089592234  0.00013499933
     47120         769   1737           0.0004156409   0.00015442222  3.3558473      0.0040237074   0.00099541669  0.00014112638
     47151         769   1737           0.0004153903   0.00015634244  3.3573972      0.0040253047   0.00086048167  0.00011905495
     47182         769   1737           0.00041559179  0.00015572533  3.3589471      0.0040269022   0.00079586832  0.0001232402 
     47213         769   1735           0.00041490307  0.00015512309  3.360497       0.0040284997   0.00090524355  0.00012235323
     47244         769   1735           0.00041500813  0.0001594927   3.3620469      0.0040300973   0.00092122512  0.00011653951
     47275         769   1734           0.00041499956  0.00015252065  3.3635968      0.004031695    0.00093167532  0.00014727406
     47306         769   1734           0.00041500477  0.00015579553  3.3651467      0.0040332929   0.00090587804  0.00011845719
     47337         769   1733           0.00041517894  0.00015661211  3.3666966      0.0040348908   0.00086300978  0.00012542794
     47368         769   1733           0.00041490558  0.00015671306  3.3682465      0.0040364888   0.00092451883  0.00012534667
     47399         769   1733           0.000414867    0.00015654191  3.3697964      0.004038087    0.00098522363  0.00012499417
     47430         769   1733           0.00041540765  0.00015350141  3.3713463      0.0040396852   0.00091258814  0.00014335037
     47461         769   1732           0.0004142827   0.00015643645  3.3728962      0.0040412836   0.00090086164  0.00011583639
     47492         769   1731           0.00041391443  0.00015749271  3.3744461      0.004042882    0.00094316446  0.0001138075 
     47523         769   1731           0.00041415943  0.00015187159  3.375996       0.0040444806   0.00096968944  0.00013878283
     47554         769   1731           0.00041438295  0.00015451095  3.3775459      0.0040460792   0.00091205013  0.00012855639
     47585         769   1729           0.00041379292  0.00015775752  3.3790958      0.004047678    0.00089997166  0.00012011144
     47616         769   1729           0.00041364206  0.0001533485   3.3806457      0.0040492768   0.00086438502  0.00013338052
     47647         769   1730           0.00041435306  0.00015369231  3.3821956      0.0040508758   0.00092438085  0.00013364254
     47678         769   1731           0.00041471845  0.00014976995  3.3837455      0.0040524748   0.00088255855  0.00014647768
     47709         769   1732           0.00041487572  0.00015309815  3.3852954      0.004054074    0.00087994917  0.00014030847
     47740         769   1731           0.00041438961  0.00015525929  3.3868453      0.0040556733   0.0009700702   0.00013451968
     47771         769   1732           0.00041498649  0.00015446643  3.3883952      0.0040572726   0.00086636453  0.00012815238
     47802         769   1732           0.00041492731  0.00015572949  3.3899451      0.0040588721   0.00085340395  0.00012981212
     47833         769   1732           0.00041486214  0.00015374844  3.391495       0.0040604716   0.00097254571  0.00013574491
     47864         769   1732           0.00041540578  0.00015541919  3.3930449      0.0040620713   0.00096265145  0.00013659106
     47895         769   1733           0.00041499939  0.00015481483  3.3945948      0.0040636711   0.00090294219  0.00012946022
     47926         769   1732           0.00041514682  0.00014886936  3.3961447      0.0040652709   0.00093297826  0.00015111538
     47957         769   1732           0.00041482365  0.00015379669  3.3976946      0.0040668709   0.00084072873  0.0001387154 
     47988         769   1731           0.00041449632  0.00015297694  3.3992445      0.004068471    0.00087921384  0.00014074306
     48019         769   1731           0.00041447969  0.00015418235  3.4007944      0.0040700711   0.00086259191  0.00012814011
     48050         769   1731           0.00041503818  0.00015444813  3.4023443      0.0040716714   0.00090707685  0.00013812895
     48081         769   1732           0.00041522564  0.00015680804  3.4038942      0.0040732718   0.0008475022   0.00013125597
     48112         769   1732           0.00041498677  0.00015290426  3.405444       0.0040748722   0.00088577822  0.00013617031
     48143         769   1732           0.00041518492  0.00015306221  3.4069939      0.0040764728   0.0008841937   0.00013373726
     48174         769   1731           0.00041380418  0.00015618877  3.4085438      0.0040780735   0.00078492513  0.00012234289
     48205         769   1731           0.0004136078   0.000154286    3.4100937      0.0040796742   0.00097802821  0.00012613916
     48236         769   1731           0.00041441948  0.00015499105  3.4116436      0.0040812751   0.00099402859  0.00012504149
     48267         769   1731           0.00041405237  0.0001541912   3.4131935      0.0040828761   0.00078183433  0.00013566493
     48298         769   1731           0.00041419156  0.00015482533  3.4147434      0.0040844771   0.00089248858  0.00012218933
     48329         769   1730           0.00041384325  0.00015265687  3.4162933      0.0040860783   0.00078468581  0.00013424286
     48360         769   1730           0.00041395123  0.00015342117  3.4178432      0.0040876796   0.00086647396  0.00013099163
     48391         769   1729           0.00041393431  0.00015309169  3.4193931      0.0040892809   0.00090023131  0.00013919696
     48422         769   1730           0.00041412277  0.00015554185  3.420943       0.0040908824   0.0008838855   0.00012676396
     48453         769   1731           0.00041441676  0.00015484757  3.4224929      0.0040924839   0.0009739744   0.00013031923
     48484         769   1730           0.00041396537  0.00015430497  3.4240428      0.0040940856   0.00090348096  0.00012741325
     48515         769   1730           0.00041410354  0.00015131592  3.4255927      0.0040956874   0.00094496956  0.00014304677
     48546         769   1729           0.00041369756  0.00015373299  3.4271426      0.0040972892   0.00085133915  0.00013347763
     48577         769   1729           0.00041364039  0.00015491529  3.4286925      0.0040988912   0.00093125586  0.00012862248
     48608         769   1730           0.00041398513  0.00015327257  3.4302424      0.0041004932   0.00085362744  0.00013185232
     48639         769   1730           0.00041423046  0.00015260831  3.4317923      0.0041020954   0.0010146394   0.00013404139
     48670         769   1729           0.00041389895  0.00015621385  3.4333422      0.0041036976   0.00098063409  0.00012512965
     48701         769   1729           0.0004140344   0.00015504743  3.4348921      0.0041052999   0.00099629951  0.00011951925
     48732         769   1729           0.00041373152  0.00015339981  3.436442       0.0041069024   0.00097481919  0.00013670201
     48763         769   1729           0.00041421033  0.00015160124  3.4379919      0.0041085049   0.00086707882  0.00014750251
     48794         769   1728           0.00041397158  0.00015148409  3.4395418      0.0041101076   0.00088157918  0.00014681644
     48825         769   1728           0.00041391469  0.00015534847  3.4410917      0.0041117103   0.00089172058  0.00013275797
     48856         769   1728           0.00041398347  0.00015562552  3.4426416      0.0041133131   0.00089759802  0.00012644906
     48887         769   1728           0.00041388294  0.00015086906  3.4441915      0.0041149161   0.00094419161  0.00013405013
     48918         769   1727           0.00041432395  0.00014998842  3.4457414      0.0041165191   0.00083738069  0.0001364192 
     48949         769   1727           0.00041368097  0.00015377987  3.4472913      0.0041181222   0.0008650367   0.00013628315
     48980         769   1725           0.00041383729  0.00015341593  3.4488412      0.0041197254   0.00087022405  0.00013088105
     49011         769   1726           0.00041410581  0.00015522334  3.4503911      0.0041213287   0.00092430615  0.00012909371
     49042         769   1726           0.00041436058  0.00015142031  3.451941       0.0041229321   0.00090344963  0.00014363443
     49073         769   1726           0.00041417945  0.00015265841  3.4534909      0.0041245356   0.00087114578  0.00014281397
     49104         769   1724           0.00041257044  0.00014907723  3.4550408      0.0040724      0.00077295186  0.00014520706
     49135         769   1723           0.00041270208  0.00015465621  3.4565907      0.0040740663   0.00094697968  0.00012740877
     49166         769   1722           0.00041207932  0.00015365615  3.4581406      0.0040757327   0.00086902162  0.0001276167 
     49197         769   1723           0.00041247443  0.00015342045  3.4596905      0.0040773992   0.00087302217  0.00012580273
     49228         769   1723           0.00041256165  0.00015112185  3.4612404      0.0040790657   0.00086363925  0.00013942083
     49259         769   1723           0.00041213737  0.0001520354   3.4627903      0.0040807323   0.00092309014  0.0001325766 
     49290         769   1723           0.00041203822  0.00015235253  3.4643402      0.004082399    0.00089564555  0.00013242495
     49321         769   1723           0.00041236782  0.00015251611  3.4658901      0.0040840657   0.00084246254  0.00013049606
     49352         769   1723           0.00041234827  0.00015424538  3.46744        0.0040857325   0.00084996916  0.00012406512
     49383         769   1723           0.00041238986  0.00015359497  3.4689899      0.0040873993   0.00082892609  0.00013697769
     49414         769   1723           0.00041269331  0.00015335148  3.4705398      0.0040890662   0.00095315386  0.00012904368
     49445         769   1723           0.00041233577  0.0001542642   3.4720897      0.0040895547   0.00084940862  0.00012677563
     49476         769   1723           0.00041226343  0.00015599214  3.4736396      0.0040924002   0.00089052327  0.0001186491 
     49507         769   1721           0.00041227781  0.00015105039  3.4751895      0.0040928887   0.00086281877  0.0001337695 
     49538         769   1721           0.00041238612  0.00015207654  3.4767394      0.0040945559   0.00091274008  0.00013050368
     49569         769   1721           0.00041236738  0.00015265157  3.4782893      0.0040974018   0.00095539977  0.00013374232
     49600         769   1721           0.00041251053  0.00015448061  3.4798392      0.0040990691   0.00076114865  0.00012161532
     49631         769   1721           0.00041210126  0.00015442266  3.4813891      0.0040995576   0.001006404    0.00012229736
     49662         769   1722           0.00041257447  0.00015383896  3.482939       0.0041024039   0.00090579014  0.00013454354
     49693         769   1723           0.00041290244  0.00015432142  3.4844889      0.0041040714   0.00088626751  0.00013020816
     49724         769   1723           0.00041289811  0.00015173153  3.4860388      0.0041057389   0.00081294251  0.00013841052
     49755         769   1723           0.00041284942  0.00015428532  3.4875887      0.0041062276   0.00092645081  0.0001315898 
     49786         769   1723           0.00041291876  0.00015453757  3.4891386      0.0041090742   0.0007657413   0.00013445716
     49817         769   1723           0.0004133169   0.00015501592  3.4906885      0.0041095629   0.0010157727   0.00012324351
     49848         769   1721           0.00041177706  0.00015275602  3.4922384      0.0041112307   0.00086521153  0.00013006388
     49879         769   1722           0.00041181904  0.00015382711  3.4937883      0.0041128985   0.00090584439  0.00012626272
     49910         769   1722           0.00041227278  0.00015242707  3.4953382      0.0041145664   0.00082012964  0.00012419232
     49941         769   1722           0.00041220606  0.00015226178  3.4968881      0.0041162344   0.00083421453  0.00013024906
     49972         769   1722           0.00041224685  0.00015029666  3.498438       0.0041179024   0.00077664478  0.00013060821
     50003         769   1723           0.00041200114  0.00015408579  3.4999879      0.0041195705   0.00098765523  0.00013291175
     50034         769   1721           0.00041192231  0.00015057026  3.5015378      0.0041212386   0.00083329746  0.00013553838
     50065         769   1721           0.00041233586  0.0001532307   3.5030877      0.0041229069   0.0010211502   0.00013089556
     50096         769   1720           0.00041064486  0.00014915176  3.5046376      0.0040665968   0.00088938249  0.00013620653
     50127         769   1720           0.00041059569  0.00015249355  3.5061875      0.0040680647   0.00097674538  0.00013011144
     50158         769   1720           0.00041039983  0.00015054706  3.5077374      0.0040695328   0.00093331072  0.00012334723
     50189         769   1721           0.00041088624  0.00015167023  3.5092873      0.0040710009   0.00083946394  0.0001290158 
     50220         769   1720           0.00041027561  0.00015209408  3.5108372      0.0040724692   0.0009194584   0.00012938233
     50251         769   1718           0.00040969991  0.00015393261  3.5123871      0.0040739376   0.00091641381  0.00012048893
     50282         769   1718           0.00040923261  0.00015251139  3.513937       0.0040754062   0.00085488417  0.00011521652
     50313         769   1718           0.00040974242  0.00015403263  3.5154869      0.0040768748   0.00092110369  0.00012211825
     50344         769   1717           0.0004096432   0.00015346654  3.5170368      0.0040783436   0.00078739967  0.00012544008
     50375         769   1717           0.00040972328  0.00015554632  3.5185867      0.0040798124   0.00087930343  0.00011218649
     50406         769   1717           0.00040981485  0.00015280395  3.5201366      0.0040812814   0.00079982448  0.00011975728
     50437         769   1717           0.00040983404  0.00015256803  3.5216865      0.0040827505   0.00084999867  0.0001281874 
     50468         769   1718           0.00041021766  0.00015331424  3.5232364      0.0040842198   0.0008294714   0.00012423246
     50499         769   1718           0.00041004669  0.00015772006  3.5247863      0.0040856891   0.0009556993   0.00011011795
     50530         769   1719           0.00041000081  0.00015460939  3.5263362      0.0040871586   0.00080965861  0.00011159521
     50561         769   1719           0.00041019081  0.00015172079  3.5278861      0.0040886282   0.00096568112  0.00013137089
     50592         769   1719           0.00041034537  0.00015354145  3.529436       0.0040900979   0.00095807474  0.00012535698
     50623         769   1718           0.00040998808  0.00015155803  3.5309859      0.0040915677   0.00097170237  0.00012561956
     50654         769   1718           0.00041007375  0.00015111424  3.5325358      0.0040930376   0.00083094244  0.00012996328
     50685         769   1718           0.00041017791  0.00015332975  3.5340857      0.0040945077   0.00096416706  0.00011521567
     50716         769   1718           0.00041021778  0.00015433423  3.5356356      0.0040959778   0.00083953302  0.00011757219
     50747         769   1719           0.00041068055  0.00015184896  3.5371855      0.0040974481   0.00082144738  0.00013057512
     50778         769   1720           0.00041064143  0.00015165118  3.5387354      0.0040989185   0.00087436723  0.00012711836
     50809         769   1720           0.00041084112  0.00015258207  3.5402853      0.004100389    0.00086340612  0.00012058777
     50840         769   1718           0.0004102079   0.00015468158  3.5418352      0.0041018597   0.00085991708  0.00011870952
     50871         769   1718           0.00041011797  0.00015594694  3.5433851      0.0041033304   0.00087955544  0.00011094162
     50902         769   1718           0.00041072458  0.00015459099  3.544935       0.0041048013   0.0008887114   0.00012403697
     50933         769   1719           0.00041088558  0.00014998791  3.5464849      0.0041062723   0.00092423925  0.00013710753
     50964         769   1718           0.00041028838  0.00015132714  3.5480348      0.0041077434   0.00096021203  0.00013663118
     50995         769   1718           0.00041017815  0.00015646391  3.5495847      0.0041092146   0.00099638771  0.00011665253
     51026         769   1717           0.00041021289  0.00015198784  3.5511346      0.0041106859   0.00090500568  0.00012724445
     51057         769   1716           0.00041013694  0.0001507394   3.5526845      0.0041121574   0.00082167834  0.00013408881
     51088         769   1715           0.00040976588  0.00015554999  3.5542344      0.0041136289   0.00083468176  0.00011321818
     51119         769   1715           0.0004099991   0.00014972702  3.5557843      0.0041151006   0.00095022052  0.00013677577
     51150         769   1716           0.00041073529  0.00015017456  3.5573342      0.0041165724   0.00092418401  0.00013210682
     51181         769   1716           0.00041003683  0.00015263472  3.5588841      0.0041180443   0.00084878415  0.00012736048
     51212         769   1717           0.00041063547  0.00014950799  3.560434       0.0041195163   0.00086463826  0.0001409549 
     51243         769   1717           0.00041065276  0.00015348221  3.5619839      0.0041209885   0.00088499365  0.00012740713
     51274         769   1717           0.00041085518  0.00015087484  3.5635338      0.0041224607   0.00088054415  0.00013517589
     51305         769   1717           0.00041067833  0.0001516935   3.5650837      0.0041239331   0.00080188868  0.00012480455
     51336         769   1717           0.00041071532  0.00014980369  3.5666336      0.0041254056   0.0009902636   0.00014508909
     51367         769   1716           0.00040910174  0.00015138089  3.5681835      0.0040810193   0.00087349634  0.00013413277
     51398         769   1717           0.0004096443   0.00015224672  3.5697334      0.0040827022   0.00096756012  0.00012487554
     51429         769   1717           0.00040940329  0.00015231483  3.5712833      0.0040843852   0.00091726394  0.00012792751
     51460         769   1717           0.00040915526  0.00015332977  3.5728332      0.0040860682   0.00091051337  0.00011897062
     51491         769   1717           0.00040906304  0.00015288566  3.5743831      0.0040877513   0.0009881984   0.00012731068
     51522         769   1716           0.00040813347  0.0001502747   3.575933       0.0040894344   0.00091698463  0.00012418597
     51553         769   1716           0.00040804208  0.00015615894  3.5774829      0.0040911175   0.00080923088  0.00011098588
     51584         769   1716           0.00040825353  0.00015287912  3.5790328      0.0040928007   0.00087783399  0.00012358135
     51615         769   1715           0.00040807883  0.00015262897  3.5805827      0.0040944839   0.00091063539  0.00011772249
     51646         769   1715           0.00040792719  0.00015250179  3.5821326      0.0040961671   0.00099794506  0.00011785861
     51677         769   1715           0.00040797328  0.00015296924  3.5836825      0.0040978504   0.00087931693  0.00012807547
     51708         769   1717           0.00040833156  0.00015204745  3.5852324      0.0040995337   0.00079630203  0.00012271141
     51739         769   1717           0.00040840132  0.00015308759  3.5867823      0.004101217    0.00099971225  0.00011955609
     51770         769   1718           0.00040878911  0.00015280389  3.5883322      0.0041029004   0.00094697652  0.0001144421 
     51801         769   1718           0.00040854231  0.00015309815  3.5898821      0.0041045838   0.0008018566   0.00012281125
     51832         769   1719           0.00040887155  0.00015290862  3.591432       0.0041062673   0.00078882621  0.00012376811
     51863         769   1717           0.00040808584  0.00015419798  3.5929819      0.0041079508   0.00076495228  0.00011696899
     51894         769   1717           0.00040884492  0.00015174409  3.5945318      0.0041096343   0.0009465666   0.00013321337
     51925         769   1716           0.00040822449  0.00015183426  3.5960817      0.0041113179   0.00089516523  0.00012592539
     51956         769   1717           0.00040847661  0.00015282625  3.5976316      0.0041130015   0.0010070318   0.00012140336
     51987         769   1717           0.00040861356  0.00015033797  3.5991815      0.0041146851   0.00085545653  0.00013836537
     52018         769   1716           0.00040858321  0.00015297762  3.6007314      0.0041163688   0.00087443376  0.00012444625
     52049         769   1716           0.00040821445  0.00015234618  3.6022813      0.0041180525   0.00080025361  0.00012338819
     52080         769   1715           0.00040703923  0.00015358172  3.6038312      0.0041197362   0.00088944217  0.00010841819
     52111         769   1715           0.00040704734  0.00014889979  3.6053811      0.00412142     0.00094818433  0.00012911617
     52142         769   1715           0.00040714556  0.00015317732  3.606931       0.0041231038   0.00091037738  0.00011168419
     52173         769   1716           0.00040753162  0.00015057327  3.6084809      0.0041247877   0.00090445569  0.00012585438
     52204         769   1716           0.00040650532  0.00015027575  3.6100308      0.0039223392   0.00095285825  0.00011382496
     52235         769   1716           0.00040641732  0.00015306993  3.6115807      0.0039234601   0.00095370162  0.00012280544
     52266         769   1716           0.00040624723  0.00015220902  3.6131306      0.0039245812   0.00096172983  0.00011222573
     52297         769   1717           0.00040651811  0.00015157398  3.6146805      0.0039257024   0.0010106568   0.00012172196
     52328         769   1719           0.00040682459  0.00015670459  3.6162304      0.0039268237   0.00082387862  0.00010646888
     52359         769   1719           0.00040687658  0.00015258357  3.6177803      0.0039279453   0.00083964456  0.00011001814
     52390         769   1718           0.00040618328  0.00015205524  3.6193302      0.0039290669   0.00099675062  0.00010731872
     52421         769   1718           0.00040639475  0.00015571681  3.6208801      0.0039301888   0.00094564429  0.00010287897
     52452         769   1721           0.00040705509  0.00015538527  3.62243        0.0039313108   0.0007872248   0.00010168588
     52483         769   1722           0.00040719532  0.00015442315  3.6239799      0.0039325767   0.00079829204  0.00010588249
     52514         769   1723           0.00040755942  0.00015386042  3.6255298      0.0039341192   0.00092941601  0.00011537143
     52545         769   1723           0.00040746199  0.00015477837  3.6270797      0.0039356617   0.00085966822  0.0001064862 
     52576         769   1723           0.00040783465  0.00015112452  3.6286296      0.0039372043   0.00083277234  0.00011984476
     52607         769   1722           0.00040781064  0.00015319182  3.6301795      0.003938747    0.00087758411  0.00010841606
     52638         769   1722           0.00040767866  0.00015106769  3.6317294      0.0039402897   0.00086419056  0.00011412627
     52669         769   1722           0.00040771471  0.00015646197  3.6332793      0.0039418324   0.00093452923  0.00010501847
     52700         769   1723           0.00040780871  0.00015222545  3.6348292      0.0039433752   0.0010125785   0.00011450077
     52731         769   1724           0.00040835571  0.00015396012  3.6363791      0.0039449181   0.0010102481   0.00010583734
     52762         769   1723           0.00040778648  0.00015613557  3.637929       0.003946461    0.00080828265  0.00010094224
     52793         769   1723           0.00040786325  0.00015372484  3.6394789      0.0039480039   0.00096669639  0.00010798457
     52824         769   1724           0.00040810586  0.00015388053  3.6410288      0.003949547    0.00099867864  0.00011349158
     52855         769   1725           0.00040859668  0.00015101067  3.6425787      0.00395109     0.00092813703  0.00011991952
     52886         769   1724           0.00040821994  0.00015249227  3.6441286      0.0039526331   0.00077442646  0.00011420292
     52917         769   1724           0.00040787573  0.00015347233  3.6456785      0.0039541763   0.0011314168   0.00011388118
     52948         769   1724           0.00040828966  0.00015019593  3.6472284      0.0039557196   0.00096362561  0.00012517406
     52979         769   1725           0.00040832047  0.00014935438  3.6487783      0.0039572629   0.00087830354  0.0001194566 
     53010         769   1725           0.00040798518  0.0001515931   3.6503282      0.0039588062   0.00085127045  0.0001238862 
     53041         769   1725           0.00040824493  0.00015268904  3.6518781      0.0039603496   0.00099204947  0.00011439444
     53072         769   1727           0.0004089225   0.00015332963  3.653428       0.003961893    0.00099559294  0.00011291236
     53103         769   1728           0.00040913096  0.00015202545  3.6549779      0.0039634365   0.00089712405  0.00011909304
     53134         769   1727           0.00040888466  0.00015321461  3.6565278      0.0039649801   0.00087425812  0.00011259941
     53165         769   1726           0.00040847956  0.00015418135  3.6580777      0.0039665237   0.00082405178  0.00011187137
     53196         769   1726           0.00040867923  0.00015336742  3.6596276      0.0039680674   0.0009491248   0.00012038472
     53227         769   1724           0.00040802585  0.00015452839  3.6611775      0.0039696111   0.00087705556  0.00011674126
     53258         769   1724           0.00040824324  0.00015177523  3.6627274      0.0039711548   0.00080777266  0.00011443124
     53289         769   1725           0.00040793545  0.00015411753  3.6642773      0.0039726987   0.00091050685  0.00011620492
     53320         769   1724           0.00040780784  0.0001515934   3.6658272      0.0039742425   0.0008566825   0.0001275275 
     53351         769   1724           0.00040783335  0.00015578825  3.6673771      0.0039757865   0.00086299075  0.00011324091
     53382         769   1723           0.00040769533  0.00015351327  3.668927       0.0039773304   0.00087205027  0.00011800419
     53413         769   1723           0.00040801772  0.000153184    3.6704769      0.0039788745   0.00085569557  0.00012137966
     53444         769   1723           0.00040778742  0.00015258309  3.6720268      0.0039804186   0.00081170486  0.00011493469
     53475         769   1723           0.0004075978   0.00015502727  3.6735767      0.0039819627   0.00092645851  0.00011078384
     53506         769   1723           0.0004080054   0.00015258063  3.6751266      0.0039835069   0.00083008359  0.00012054081
     53537         769   1723           0.00040767313  0.00015443109  3.6766765      0.0039850511   0.00087473214  0.00011679964
     53568         769   1722           0.00040773606  0.00015243418  3.6782264      0.0039865954   0.00092331856  0.00011864878
     53599         769   1722           0.00040775847  0.00015293927  3.6797763      0.0039881398   0.00087500967  0.00011912004
     53630         769   1723           0.00040775865  0.00015769326  3.6813262      0.0039896842   0.00079651305  9.7915831e-05
     53661         769   1723           0.00040758428  0.00015362099  3.6828761      0.0039912286   0.00076237942  0.00011924157
     53692         769   1723           0.00040795945  0.00015127179  3.684426       0.0039927732   0.00099970534  0.0001153174 
     53723         769   1723           0.00040797819  0.00015461363  3.6859759      0.0039943177   0.00094689591  0.00011323588
     53754         769   1724           0.0004084674   0.00014987142  3.6875258      0.0039958623   0.00091981926  0.00012162691
     53785         769   1724           0.0004085187   0.00015324887  3.6890757      0.003997407    0.00093710259  0.00011056234
     53816         769   1723           0.00040823714  0.00015128755  3.6906256      0.0039989517   0.001005919    0.00012354834
     53847         769   1723           0.00040831966  0.00015004797  3.6921755      0.0040004965   0.00081892648  0.00013887603
     53878         769   1719           0.0004071634   0.00015134832  3.6937254      0.0040020413   0.00084359072  0.00012104371
     53909         769   1719           0.00040752299  0.00015163356  3.6952753      0.0040035862   0.0010299122   0.00011945051
     53940         769   1719           0.00040727385  0.00015252439  3.6968252      0.0040051311   0.00091879544  0.0001099596 
     53971         769   1718           0.00040727569  0.00015614692  3.6983751      0.0040066761   0.0010260324   0.00010481062
     54002         769   1718           0.00040766631  0.00015398533  3.699925       0.0040082211   0.00097619158  0.00011141427
     54033         769   1718           0.00040763198  0.00015293385  3.7014749      0.0040097662   0.00093400649  0.0001152739 
     54064         769   1720           0.00040840305  0.00015252269  3.7030248      0.0040113113   0.00088070824  0.00010993792
     54095         769   1721           0.00040886145  0.00015169784  3.7045747      0.0040128565   0.00096205398  0.0001254211 
     54126         769   1721           0.00040837492  0.00015211694  3.7061246      0.0040144017   0.00082067638  0.00011378331
     54157         769   1720           0.0004078684   0.00015357323  3.7076745      0.004015947    0.00088491522  0.00010609318
     54188         769   1720           0.00040836193  0.00015224857  3.7092244      0.0040174923   0.00084192496  0.00012158811
     54219         769   1720           0.00040845404  0.00015397435  3.7107743      0.0040190377   0.00094908071  0.00011674968
     54250         769   1719           0.00040850738  0.00015288671  3.7123242      0.0040205831   0.00096332163  0.00011888335
     54281         769   1719           0.00040853746  0.00015338685  3.7138741      0.0040221286   0.00091069726  0.00011124726
     54312         769   1719           0.00040825324  0.0001551682   3.715424       0.0040236742   0.00089451526  0.0001145824 
     54343         769   1718           0.00040846937  0.00015396182  3.7169739      0.0040252198   0.00085466854  0.00012296127
     54374         769   1718           0.00040815269  0.00015345582  3.7185238      0.0040267654   0.0008816336   0.00011619622
     54405         769   1718           0.00040857506  0.0001512885   3.7200737      0.0040283111   0.00082859597  0.00012240637
     54436         769   1718           0.00040838118  0.00015739246  3.7216236      0.0040298568   0.00087760902  0.00011236205
     54467         769   1718           0.00040857499  0.00015712632  3.7231735      0.0040314026   0.00091779525  0.00010267254
     54498         769   1718           0.00040862263  0.00015592643  3.7247234      0.0040329485   0.00093784822  0.00011628172
     54529         769   1716           0.00040816334  0.00015072097  3.7262732      0.0040344944   0.00096545772  0.00012927602
     54560         769   1717           0.0004087671   0.00015403068  3.7278231      0.0040360403   0.00090502373  0.00011562513
     54591         769   1717           0.00040859371  0.00015361745  3.729373       0.0040375863   0.00079781545  0.00012103035
     54622         769   1718           0.00040933753  0.00014994514  3.7309229      0.0040391324   0.0008907166   0.00012737982
     54653         769   1720           0.00040973148  0.0001540096   3.7324728      0.0040406785   0.00079889805  0.00011247235
     54684         769   1721           0.0004097219   0.00014871933  3.7340227      0.0040422246   0.00086063364  0.00013774358
     54715         769   1721           0.00040995745  0.00015611252  3.7355726      0.0040437708   0.0010755702   0.00011827156
     54746         769   1720           0.00040949863  0.00015495284  3.7371225      0.0040453171   0.0010495135   0.0001188549 
     54777         769   1720           0.00040928892  0.00015047011  3.7386724      0.0040468634   0.00084530223  0.0001309555 
     54808         769   1720           0.00040953329  0.00015275786  3.7402223      0.0040484097   0.0008437907   0.00012259539
     54839         769   1719           0.00040880342  0.0001546061   3.7417722      0.0040499561   0.00091714804  0.00011668569
     54870         769   1719           0.00040914089  0.00015217628  3.7433221      0.0040515026   0.00084996672  0.00012531047
     54901         769   1719           0.00040911893  0.00015674106  3.744872       0.0040530491   0.00076735594  0.00011860861
     54932         769   1719           0.00040917371  0.00015310959  3.7464219      0.0040545956   0.00084791314  0.00011843413
     54963         769   1719           0.00040940685  0.00015331831  3.7479718      0.0040561422   0.00083595275  0.00012455158
     54994         769   1719           0.00040961245  0.00015427242  3.7495217      0.0040576889   0.00088563125  0.00011725321
     55025         769   1720           0.00041000913  0.00015424227  3.7510716      0.0040592356   0.00085654601  0.00012145631
     55056         769   1720           0.00040976197  0.0001529759   3.7526215      0.0040607823   0.0008579688   0.00012237515
     55087         769   1722           0.00041010384  0.00015414148  3.7541714      0.0040623291   0.00091143671  0.00011986794
     55118         769   1721           0.00040986371  0.00015038643  3.7557213      0.004063876    0.0009576879   0.00013388058
     55149         769   1722           0.00041030163  0.00015443504  3.7572712      0.0040654229   0.00099175189  0.0001257537 
     55180         769   1722           0.00041040227  0.00015310332  3.7588211      0.0040669698   0.001008392    0.00013229918
     55211         769   1722           0.00041021183  0.0001554975   3.760371       0.0040685168   0.00090522541  0.00012735353
     55242         769   1720           0.00041003682  0.00015456067  3.7619209      0.0040700638   0.0010028825   0.0001213482 
     55273         769   1721           0.00041014532  0.00015307396  3.7634708      0.0040716109   0.00092733866  0.00012341405
     55304         769   1721           0.00041006679  0.00015346935  3.7650207      0.0040731581   0.00091120534  0.00011755258
     55335         769   1719           0.00040955936  0.00015309886  3.7665706      0.0040747053   0.0010103913   0.00012405833
     55366         769   1720           0.0004097587   0.00015217371  3.7681205      0.0040762525   0.0008709512   0.00013469544
     55397         769   1720           0.0004097842   0.00014986146  3.7696704      0.0040777998   0.00079672846  0.00013935745
     55428         769   1721           0.00041008976  0.00015232535  3.7712203      0.0040793472   0.0009149731   0.00013497089
     55459         769   1721           0.00041023118  0.00015286396  3.7727702      0.0040808945   0.00091877908  0.00012618458
     55490         769   1721           0.00040988329  0.00015153209  3.7743201      0.004082442    0.00077917975  0.00013244524
     55521         769   1720           0.00041001594  0.00015535856  3.77587        0.0040839895   0.00087337051  0.00012160003
     55552         769   1720           0.00041014383  0.00015306815  3.7774199      0.004085537    0.00088604465  0.0001266363 
     55583         769   1721           0.00041058025  0.00015185304  3.7789698      0.0040870846   0.0010008336   0.00013024771
     55614         769   1722           0.00041076817  0.00015453415  3.7805197      0.0040886322   0.00078894358  0.00012935765
     55645         769   1722           0.00041093975  0.00015512452  3.7820696      0.0040901799   0.00095066274  0.00012058615
     55676         769   1720           0.00041069711  0.00014944602  3.7836195      0.0040917276   0.000875727    0.00014283691
     55707         769   1721           0.00041091114  0.00015565026  3.7851694      0.0040932754   0.00082963008  0.00012885783
     55738         769   1721           0.00041147444  0.00015112843  3.7867193      0.0040948233   0.00081898241  0.00013677511
     55769         769   1721           0.00041120863  0.00015381323  3.7882692      0.0040963711   0.00093446783  0.0001260235 
     55800         769   1720           0.000411004    0.00015532096  3.7898191      0.0040979191   0.00080679647  0.00012183434
     55831         769   1721           0.00041118199  0.00015006352  3.791369       0.004099467    0.00096074435  0.00013920099
     55862         769   1720           0.00041064766  0.00015062399  3.7929189      0.0041010151   0.00089461466  0.00013815228
     55893         769   1720           0.00041038557  0.00015319094  3.7944688      0.0041025631   0.00093126534  0.00012230975
     55924         769   1720           0.00040986165  0.00015363806  3.7960187      0.0041041112   0.00088284955  0.00012983868
     55955         769   1720           0.00041002656  0.0001508358   3.7975686      0.0041056594   0.00091868185  0.00013551535
     55986         769   1719           0.00040849952  0.000150764    3.7991185      0.0041072076   0.00087844924  0.00012500232
     56017         769   1719           0.00040858424  0.00015356764  3.8006684      0.0041087559   0.00085218699  0.00010955294
     56048         769   1718           0.0004083595   0.00015162554  3.8022183      0.0041103042   0.00081065191  0.00012334608
     56079         769   1718           0.00040847363  0.00015471177  3.8037682      0.0041118526   0.00089362639  0.00011052818
     56110         769   1717           0.0004081193   0.00015489552  3.8053181      0.004113401    0.00089851498  0.00012211227
     56141         769   1716           0.00040785805  0.00015257522  3.806868       0.0041149494   0.0009657321   0.00011913233
     56172         769   1716           0.00040764887  0.00015242429  3.8084179      0.0041164979   0.00089022877  0.00012139047
     56203         769   1716           0.00040786937  0.00015331657  3.8099678      0.0041180465   0.00091052072  0.00011846422
     56234         769   1717           0.00040797073  0.00015097993  3.8115177      0.0041195951   0.00087330428  0.00013176248
     56265         769   1718           0.00040849764  0.00014673393  3.8130676      0.0041211437   0.00080310181  0.00014735529
     56296         769   1718           0.00040838222  0.00015558722  3.8146175      0.0041226924   0.00089853556  0.0001085153 
     56327         769   1718           0.0004081814   0.00015177995  3.8161674      0.0041242412   0.0010026453   0.00012646013
     56358         769   1718           0.0004068004   0.00015231788  3.8177173      0.0040930766   0.00088084157  0.00011503332
     56389         769   1717           0.00040636869  0.00015277437  3.8192672      0.0040946369   0.00081298143  0.0001124196 
     56420         769   1717           0.00040634716  0.00015373161  3.8208171      0.0040961973   0.00079642244  0.00011312052
     56451         769   1717           0.00040679679  0.00015148452  3.822367       0.0040977576   0.00086485168  0.00012387811
     56482         769   1718           0.00040705026  0.00014959714  3.8239169      0.0040993181   0.00088256375  0.00013264943
     56513         769   1717           0.00040695919  0.00015249896  3.8254668      0.0041008785   0.00097744494  0.00012350405
     56544         769   1717           0.00040655746  0.00015246183  3.8270167      0.004102439    0.00095089487  0.0001208546 
     56575         769   1717           0.00040588611  0.00015385272  3.8285666      0.0041039996   0.00091466153  0.00010655748
     56606         769   1717           0.00040584967  0.00015628762  3.8301165      0.0041055601   0.0008202985   0.00010094625
     56637         769   1717           0.00040634005  0.00015338908  3.8316664      0.0041071208   0.00085156727  0.0001238729 
     56668         769   1717           0.00040634309  0.00015160293  3.8332163      0.0041086814   0.00094682007  0.00011978726
     56699         769   1717           0.00040624755  0.00015421361  3.8347662      0.0041102421   0.00089858364  0.00011030391
     56730         769   1718           0.00040656232  0.00015064947  3.8363161      0.0041118028   0.00086703023  0.00013050716
     56761         769   1718           0.0004065323   0.00015568448  3.837866       0.0041133636   0.00096989364  0.00010322322
     56792         769   1719           0.0004068127   0.00015551948  3.8394159      0.0041149244   0.00085316735  0.00010791028
     56823         769   1719           0.0004070486   0.00015101545  3.8409658      0.0041164853   0.00096421563  0.00012296867
     56854         769   1718           0.00040623879  0.00015065356  3.8425157      0.0041180461   0.0010108595   0.00012002191
     56885         769   1717           0.00040606525  0.00015321487  3.8440656      0.0041196071   0.00088920816  0.0001143487 
     56916         769   1717           0.0004058165   0.00014968618  3.8456155      0.004121168    0.00086603715  0.00012087164
     56947         769   1717           0.0004059657   0.00014956064  3.8471654      0.004122729    0.00095966502  0.00012502648
     56978         769   1718           0.00040602961  0.00015230625  3.8487153      0.00412429     0.00082504394  0.00011795716
     57009         769   1715           0.00040423565  0.00015183047  3.8502652      0.0039063173   0.00093127851  0.00010723868
     57040         769   1715           0.00040383321  0.00015280215  3.8518151      0.0038909409   0.0007817985   0.00010865401
     57071         769   1714           0.0004033964   0.00015493407  3.853365       0.0039083653   0.00088761368  0.00010398237
     57102         769   1714           0.00040395411  0.00015169577  3.8549149      0.0038943722   0.0010845917   0.00011082292
     57133         769   1713           0.00040265391  0.00015599945  3.8564648      0.0038151266   0.00085867062  8.8674231e-05
     57164         769   1713           0.00040307931  0.00015339427  3.8580147      0.0038164412   0.00079760207  9.6664125e-05
     57195         769   1713           0.00040275417  0.00015364409  3.8595646      0.0038177558   0.00099528236  9.832496e-05 
     57226         769   1713           0.0004027269   0.00015231047  3.8611145      0.0038190706   0.00080127128  0.00010435297
     57257         769   1712           0.00040275529  0.00014993938  3.8626644      0.0038203854   0.00086502748  0.00011577165
     57288         769   1712           0.00040267476  0.00015131418  3.8642143      0.0038217003   0.0008570269   0.00010884066
     57319         769   1712           0.00040313141  0.00015096737  3.8657642      0.0038230152   0.00084301638  0.00010793743
     57350         769   1712           0.00040281912  0.0001495479   3.8673141      0.0038243303   0.00080008442  0.0001213602 
     57381         769   1712           0.00040298035  0.00015018676  3.868864       0.0038256454   0.00079457931  0.00011478734
     57412         769   1713           0.00040320056  0.0001536091   3.8704139      0.0038269605   0.00082979714  0.00010366527
     57443         769   1712           0.00040254922  0.00014966167  3.8719638      0.0038282758   0.00090691582  0.00011683258
     57474         769   1712           0.00040306553  0.0001503919   3.8735137      0.0038295911   0.00083448296  0.00011144807
     57505         769   1713           0.00040315237  0.00014936612  3.8750636      0.0038309065   0.00091490349  0.00011447864
     57536         769   1713           0.00040336857  0.00014814343  3.8766135      0.003832222    0.00082178045  0.00011938969
     57567         769   1713           0.00040319279  0.0001515548   3.8781634      0.0038335376   0.00078683646  0.00010744785
     57598         769   1712           0.00040324432  0.00015307356  3.8797133      0.0038348532   0.00089140826  0.00010572775
     57629         769   1712           0.00040295025  0.00015127135  3.8812632      0.0038361689   0.00091354554  0.00011175072
     57660         769   1712           0.00040291425  0.0001508877   3.8828131      0.0038374847   0.00091593279  0.00011496879
     57691         769   1712           0.00040335687  0.00015272601  3.884363       0.0038388005   0.00093056893  0.00010583362
     57722         769   1712           0.00040327326  0.00015300746  3.8859129      0.0038401164   0.00079776137  0.00010363476
     57753         769   1713           0.00040322304  0.00014970519  3.8874628      0.0038414324   0.00090923214  0.00010881862
     57784         769   1713           0.00040308854  0.00015355879  3.8890127      0.0038427485   0.00086312287  0.00010888181
     57815         769   1713           0.00040336384  0.00014881323  3.8905626      0.0038440647   0.00088888584  0.00010638701
     57846         769   1713           0.00040354087  0.00014660331  3.8921125      0.0038453809   0.00091709457  0.00012550799
     57877         769   1713           0.00040349057  0.00014831913  3.8936624      0.0038466972   0.00086640681  0.00012164837
     57908         769   1713           0.00040335457  0.00015124381  3.8952123      0.0038480135   0.00091646881  0.00011094488
     57939         769   1713           0.0004036204   0.00015124634  3.8967622      0.00384933     0.00080402219  0.00010364005
     57970         769   1713           0.00040368968  0.00014812765  3.8983121      0.0038506465   0.00089099257  0.00011386895
     58001         769   1713           0.00040351175  0.00015181916  3.899862       0.0038519631   0.00090730381  0.0001062854 
     58032         769   1713           0.00040336385  0.00014968267  3.9014119      0.0038532797   0.00091108277  0.0001090251 
     58063         769   1713           0.00040363634  0.00015044268  3.9029618      0.0038545965   0.00087806812  0.00011321839
     58094         769   1713           0.00040377088  0.00015185693  3.9045117      0.0038559133   0.00087108017  0.00011459295
     58125         769   1713           0.00040382366  0.00015111864  3.9060616      0.0038572302   0.00097279929  0.00011082429
     58156         769   1713           0.00040394045  0.00015028986  3.9076115      0.0038585471   0.00096313557  0.00011720489
     58187         769   1714           0.00040409978  0.00015232675  3.9091614      0.0038598641   0.00088175028  0.00010504705
     58218         769   1714           0.00040399356  0.00014821029  3.9107113      0.0038611812   0.00095820586  0.00012763863
     58249         769   1715           0.00040432517  0.0001487265   3.9122612      0.0038624984   0.0008245938   0.00011885817
     58280         769   1717           0.00040502721  0.00015033042  3.9138111      0.0038638157   0.00093025739  0.00011731998
     58311         769   1716           0.00040459982  0.00015327506  3.915361       0.003865133    0.00087598368  0.00010195521
     58342         769   1715           0.00040427196  0.00015056445  3.9169109      0.0038664504   0.0009107385   0.00010990523
     58373         769   1716           0.00040444322  0.00015343416  3.9184608      0.0038677678   0.00086455151  0.00010579507
     58404         769   1716           0.00040441874  0.00014977746  3.9200107      0.0038690853   0.00090373189  0.00012066624
     58435         769   1716           0.0004043052   0.00015140416  3.9215606      0.003870403    0.00080898108  0.00010806402
     58466         769   1717           0.00040471619  0.00015273172  3.9231105      0.0038717206   0.00090717973  0.00010680453
     58497         769   1717           0.00040486981  0.00014923759  3.9246604      0.0038730384   0.00080726405  0.00010863124
     58528         769   1717           0.00040477457  0.00014994666  3.9262103      0.0038743562   0.00090847043  0.00011245979
     58559         769   1718           0.00040530411  0.00015133029  3.9277602      0.0038756741   0.00083471678  0.00011102817
     58590         769   1718           0.00040471197  0.00015322383  3.9293101      0.0038769921   0.001009561    0.00011253994
     58621         769   1718           0.00040516954  0.00015157679  3.93086        0.0038783101   0.001008245    0.00010789514
     58652         769   1718           0.00040519848  0.00014879348  3.9324099      0.0038796282   0.00083025912  0.00012243092
     58683         769   1716           0.00040443087  0.00014975234  3.9339598      0.0038809464   0.00088771759  0.00011944026
     58714         769   1718           0.00040460648  0.00015184816  3.9355097      0.0038822646   0.000892091    0.00010170846
     58745         769   1718           0.00040491025  0.0001512689   3.9370596      0.003883583    0.00086004062  0.00011116229
     58776         769   1718           0.00040502847  0.0001501086   3.9386095      0.0038849014   0.00092319456  0.00013130588
     58807         769   1718           0.00040471813  0.00015078852  3.9401594      0.0038862198   0.00097234724  0.00010878944
     58838         769   1717           0.0004041457   0.00015002323  3.9417093      0.0038875384   0.0009475669   0.00011493444
     58869         769   1717           0.0004046861   0.00015124506  3.9432592      0.003888857    0.00089227964  0.00011239998
     58900         769   1715           0.0004043294   0.00014610026  3.9448091      0.0038901757   0.00093241809  0.00012641991
     58931         769   1715           0.00040380444  0.00014874956  3.946359       0.0038914944   0.00083400971  0.00012359991
     58962         769   1715           0.00040420786  0.00014867987  3.9479089      0.0038928132   0.00095097681  0.00012029306
     58993         769   1715           0.00040426007  0.00015097289  3.9494588      0.0038941321   0.00091371537  0.00010921695
     59024         769   1715           0.0004040997   0.00015072308  3.9510087      0.0038954511   0.0008260665   0.00010995844
     59055         769   1715           0.00040402587  0.00015159536  3.9525586      0.0038967701   0.00094912633  0.0001095996 
     59086         769   1714           0.00040378748  0.00014866495  3.9541085      0.0038980892   0.00091220388  0.00012225934
     59117         769   1716           0.0004044287   0.00015171835  3.9556584      0.0038994084   0.0011080559   0.00010758885
     59148         769   1716           0.00040419354  0.0001526006   3.9572083      0.0039007277   0.00089239967  0.00010279629
     59179         769   1715           0.0004041895   0.00015194142  3.9587582      0.003902047    0.00095329755  0.00011843544
     59210         769   1717           0.00040455429  0.00015036186  3.9603081      0.0039033664   0.00084684516  0.00011946023
     59241         769   1718           0.00040459476  0.00014961265  3.961858       0.0039046858   0.00091725838  0.00011175433
     59272         769   1718           0.00040449977  0.00014710729  3.9634079      0.0039060053   0.00088380784  0.00013041341
     59303         769   1718           0.00040460278  0.00014964353  3.9649578      0.0039073249   0.00085007429  0.00011710707
     59334         769   1719           0.00040496362  0.00014910068  3.9665077      0.0039086446   0.00081571739  0.00012305573
     59365         769   1719           0.00040511108  0.00015079965  3.9680576      0.0039099644   0.00094919566  0.00011269909
     59396         769   1719           0.00040525962  0.00014968813  3.9696075      0.0039112842   0.0009055053   0.00011654485
     59427         769   1719           0.00040505094  0.0001524257   3.9711574      0.003912604    0.00089380122  0.00010447911
     59458         769   1719           0.00040504714  0.00014845449  3.9727073      0.003913924    0.00084145562  0.00013080462
     59489         769   1720           0.00040530011  0.00015027131  3.9742572      0.003915244    0.0009653255   0.0001201615 
     59520         769   1719           0.00040513846  0.00015267842  3.9758071      0.0039165641   0.00088771471  0.00010566088
     59551         769   1719           0.00040525159  0.00015389744  3.977357       0.0039178843   0.0009949223   0.0001044809 
     59582         769   1719           0.00040543478  0.00015304647  3.9789069      0.0039192045   0.00099487113  0.00010945767
     59613         769   1719           0.00040568492  0.00015448876  3.9804568      0.0039205248   0.00083873821  0.00010258396
     59644         769   1719           0.00040575147  0.00014763783  3.9820067      0.0039218451   0.00095421786  0.00012721086
     59675         769   1719           0.00040544776  0.00014811872  3.9835566      0.0039231656   0.00078300901  0.00011511038
     59706         769   1717           0.0004052571   0.00015353373  3.9851065      0.0039244861   0.00084744181  0.00010925283
     59737         769   1717           0.00040540239  0.00015163842  3.9866564      0.0039258067   0.0009410517   0.00011415889
     59768         769   1717           0.00040564157  0.00014933399  3.9882063      0.0039271273   0.00098223222  0.0001202237 
     59799         769   1716           0.00040516587  0.00015264855  3.9897562      0.003928448    0.00089823449  0.00011429908
     59830         769   1716           0.00040540958  0.00015354268  3.9913061      0.0039297688   0.00096922366  0.00010991322
     59861         769   1715           0.00040467895  0.00015019963  3.992856       0.0039310897   0.00097279798  0.00012068767
     59892         769   1718           0.00040536941  0.0001504841   3.9944059      0.0039324106   0.00086693734  0.00011948949
     59923         769   1718           0.00040556637  0.00015334107  3.9959558      0.0039337316   0.00098901435  0.00011698446
     59954         769   1717           0.00040558386  0.00015190903  3.9975057      0.0039350526   0.00090292675  0.00011737445
     59985         769   1717           0.00040492228  0.0001509095   3.9990556      0.0039363737   0.00094263055  0.00011190307
     60004         769   1717           0.00040547509  0.00015279227  4.0000055      0.0039371835   0.00093401387  0.00011432246
Loop time of 44.327 on 8 procs for 60004 steps with 769 atoms

97.0% CPU use with 8 MPI tasks x 1 OpenMP threads

MPI task timing breakdown:
Section |  min time  |  avg time  |  max time  |%varavg| %total
---------------------------------------------------------------
Pair    | 0.34239    | 0.59804    | 0.85394    |  25.7 |  1.35
Bond    | 0.11754    | 0.22677    | 0.31663    |  15.6 |  0.51
Neigh   | 17.159     | 17.332     | 17.604     |   3.8 | 39.10
Comm    | 3.6924     | 3.9958     | 4.1498     |   8.0 |  9.01
Output  | 0.78554    | 0.9998     | 1.5956     |  24.2 |  2.26
Modify  | 16.234     | 18.394     | 20.715     |  48.3 | 41.50
Other   |            | 2.781      |            |       |  6.27

Nlocal:         96.125 ave         152 max          34 min
Histogram: 1 3 0 0 0 0 0 0 2 2
Nghost:        183.375 ave         347 max          75 min
Histogram: 2 2 0 0 2 0 0 0 0 2
Neighs:        1502.38 ave        2750 max         341 min
Histogram: 1 3 0 0 0 0 0 2 1 1

Total # of neighbors = 12019
Ave neighs/atom = 15.629389
Ave special neighs/atom = 4.4655397
Neighbor list builds = 60004
Dangerous builds = 0


####################################
#### Apply unloading
####################################
# unfix           stretch
# unfix           dynamics
# fix             stretch boundary_atoms deform 1 y erate $(-1*v_erate)
# run             $(ceil(v_Nrun/2))

# unfix           stretch
# fix             dynamics all bond/dynamic 1 1 1 ${ka0} ${kd_bar} ${Lmax} maxbond 6 critical ${Lfc} catch ${f0} ${f0} ${B}
# fix             stretch boundary_atoms deform 1 y erate $(v_erate)
# run             $(ceil(v_Nrun))

# unfix           stretch
# unfix           dynamics
# fix             stretch boundary_atoms deform 1 y erate $(-1*v_erate)
# run             $(ceil(v_Nrun/2))
Total wall time: 0:00:51
